 vasp.6.3.2 27Jun22 (build Mar 25 2024 10:42:18) complex
 executed on             LinuxGNU date 2024.03.26  10:41:21

 INCAR:
   ISTART = 0
   ICHARG = 2
   PREC = Accurate
   ISIF = 3
   IBRION = 2
   EDIFF = 0.000000001
   EDIFFG = -0.0005
   NSW = 200
   NELM = 200
   ENCUT = 520
   ISMEAR = -5
   SIGMA = 0.05
   ISPIN = 2
   ISYM = 1
   LWAVE = False
   LCHARG = False
   MAGMOM = 8*0.6
   LASPH = True
   LORBIT = 11
   LREAL = Auto

 POTCAR:    PAW_PBE Na_pv 19Sep2006
 POTCAR:    PAW_PBE S 06Sep2000
|           W    W    AA    RRRRR   N    N  II  N    N   GGGG   !!!           |
|           W    W   A  A   R    R  NN   N  II  NN   N  G    G  !!!           |
|           W    W  A    A  R    R  N N  N  II  N N  N  G       !!!           |
|           W WW W  AAAAAA  RRRRR   N  N N  II  N  N N  G  GGG   !            |
|           WW  WW  A    A  R   R   N   NN  II  N   NN  G    G                |
|           W    W  A    A  R    R  N    N  II  N    N   GGGG   !!!           |
|     For optimal performance we recommend to set                             |
|       NCORE = 2 up to number-of-cores-per-socket                            |
|     This setting can greatly improve the performance of VASP for DFT.       |
|     The default, NCORE=1 might be grossly inefficient on modern             |
|     multi-core architectures or massively parallel machines. Do your        |
|     Unfortunately you need to use the default for GW and RPA                |
|     calculations (for HF NCORE is supported but not extensively tested      |
|     yet).                                                                   |

   TITEL  = PAW_PBE Na_pv 19Sep2006
   POMASS =   22.990; ZVAL   =    7.000    mass and valenz
   ENMAX  =  259.561; ENMIN  =  194.671 eV

   TITEL  = PAW_PBE S 06Sep2000
   POMASS =   32.066; ZVAL   =    6.000    mass and valenz
   ENMAX  =  258.689; ENMIN  =  194.016 eV

 Optimization of the real space projectors (new method)

 maximal supplied QI-value         = 17.01
 optimisation between [QCUT,QGAM] = [ 11.57, 23.30] = [ 37.45,152.03] Ry
 Optimized for a Real-space Cutoff    1.45 Angstroem

   l    n(q)    QCUT    max X(q) W(low)/X(q) W(high)/X(q)  e(spline)
   1     10    11.565     4.940    0.87E-04    0.13E-03    0.13E-06
   1     10    11.565     6.253    0.13E-03    0.19E-03    0.20E-06
   0     10    11.565    37.438    0.53E-04    0.73E-05    0.79E-07
   0     10    11.565     9.606    0.27E-04    0.60E-05    0.56E-07
 Optimization of the real space projectors (new method)

 maximal supplied QI-value         = 19.84
 optimisation between [QCUT,QGAM] = [ 11.51, 23.22] = [ 37.09,150.92] Ry
 Optimized for a Real-space Cutoff    1.21 Angstroem

   l    n(q)    QCUT    max X(q) W(low)/X(q) W(high)/X(q)  e(spline)
   0      8    11.508   187.594    0.96E-04    0.18E-03    0.54E-07
   0      8    11.508   164.243    0.96E-04    0.18E-03    0.54E-07
   1      8    11.508    67.533    0.18E-03    0.65E-04    0.94E-07
   1      8    11.508    50.729    0.18E-03    0.63E-04    0.92E-07
  PAW_PBE Na_pv 19Sep2006               :
  PAW_PBE S 06Sep2000                   :

 POSCAR: Na4 S4
  positions in direct lattice
 exchange correlation table for  LEXCH =        8
   RHO(1)=    0.500       N(1)  =     2000
   RHO(2)=  100.500       N(2)  =     4000

 ion  position               nearest neighbor table
   1  0.000  0.000  0.000-
   2  0.000  0.000  0.500-
   3  0.333  0.667  0.250-   6 2.79   7 2.79   6 2.79   7 2.79   6 2.79   7 2.79
   4  0.667  0.333  0.750-   5 2.79   8 2.79   5 2.79   8 2.79   5 2.79   8 2.79
   5  0.333  0.667  0.644-   8 2.15   4 2.79   4 2.79   4 2.79
   6  0.667  0.333  0.144-   7 2.15   3 2.79   3 2.79   3 2.79
   7  0.667  0.333  0.356-   6 2.15   3 2.79   3 2.79   3 2.79
   8  0.333  0.667  0.856-   5 2.15   4 2.79   4 2.79   4 2.79

  LATTYP: Found a hexagonal cell.
 ALAT       =     4.4515472190
 C/A-ratio  =     2.2859024693

  Lattice vectors:

 A1 = (   2.2257736095,  -3.8551529778,   0.0000000000)
 A2 = (   2.2257736095,   3.8551529778,   0.0000000000)
 A3 = (   0.0000000000,   0.0000000000,  10.1758027800)

Analysis of symmetry for initial positions (statically):
 Subroutine PRICEL returns:
 Original cell was already a primitive cell.

 Routine SETGRP: Setting up the symmetry group for a
 hexagonal supercell.

 Subroutine GETGRP returns: Found 24 space group operations
 (whereof 12 operations were pure point group operations)
 out of a pool of 24 trial point group operations.

The static configuration has the point symmetry D_3d.
 The point group associated with its full space group is D_6h.

Analysis of symmetry for dynamics (positions and initial velocities):
 Subroutine PRICEL returns:
 Original cell was already a primitive cell.

[...]

The dynamic configuration has the point symmetry D_3d.
 The point group associated with its full space group is D_6h.

Analysis of structural, dynamic, and magnetic symmetry:
 Subroutine PRICEL returns:
 Original cell was already a primitive cell.

 Routine SETGRP: Setting up the symmetry group for a
 hexagonal supercell.

 Subroutine GETGRP returns: Found 24 space group operations
 (whereof 12 operations were pure point group operations)
 out of a pool of 24 trial point group operations.

The overall configuration has the point symmetry D_3d.
 The point group associated with its full space group is D_6h.

 Subroutine INISYM returns: Found 24 space group operations
 (whereof 12 operations are pure point group operations),
 and found     1 'primitive' translations

                                     Primitive cell

  volume of cell :     174.6310

  direct lattice vectors                    reciprocal lattice vectors
     2.225773610 -3.855152978  0.000000000     0.224640996 -0.129696539  0.000000000
     2.225773610  3.855152978  0.000000000     0.224640996  0.129696539 -0.000000000
     0.000000000  0.000000000 10.175802780    -0.000000000  0.000000000  0.098272345

  length of vectors
     4.451547219  4.451547219 10.175802780     0.259393079  0.259393079  0.098272345

  position of ions in fractional coordinates (direct lattice)
     0.000000000  0.000000000  0.000000000
     0.000000000  0.000000000  0.500000000
     0.333333333  0.666666667  0.250000000
     0.666666667  0.333333333  0.750000000
     0.333333333  0.666666667  0.644189120
     0.666666667  0.333333333  0.144189120
     0.666666667  0.333333333  0.355810880
     0.333333333  0.666666667  0.855810880

  ion indices of the primitive-cell ions
   primitive index   ion index
                 1           1
                 2           2
                 3           3
                 4           4
                 5           5
                 6           6
                 7           7
                 8           8

 KPOINTS: pymatgen with grid density = 727 / numbe

Automatic generation of k-mesh.
 Grid dimensions read from file:
 generate k-points for:    5    5    2

 Generating k-lattice:

  Cartesian coordinates                     Fractional coordinates (reciprocal lattice)
     0.044928199 -0.025939308  0.000000000     0.200000000  0.000000000  0.000000000
     0.044928199  0.025939308 -0.000000000     0.000000000  0.200000000  0.000000000
    -0.000000000  0.000000000  0.049136172     0.000000000  0.000000000  0.500000000

  Length of vectors
     0.051878616  0.051878616  0.049136172

  Shift w.r.t. Gamma in fractional coordinates (k-lattice)
     0.000000000  0.000000000  0.000000000

 TETIRR: Found     55 inequivalent tetrahedra from      300

 Subroutine IBZKPT returns following result:

 Found     10 irreducible k-points:

 Following reciprocal coordinates:
            Coordinates               Weight
  0.000000  0.000000  0.000000      1.000000
  0.200000  0.000000  0.000000      6.000000
  0.400000  0.000000  0.000000      6.000000
  0.200000  0.200000  0.000000      6.000000
  0.400000  0.200000  0.000000      6.000000
  0.000000  0.000000  0.500000      1.000000
  0.200000  0.000000  0.500000      6.000000
  0.400000  0.000000  0.500000      6.000000
  0.200000  0.200000  0.500000      6.000000
  0.400000  0.200000  0.500000      6.000000

 Following cartesian coordinates:
            Coordinates               Weight
  0.000000  0.000000  0.000000      1.000000
  0.044928 -0.025939  0.000000      6.000000
  0.089856 -0.051879  0.000000      6.000000
  0.089856 -0.000000  0.000000      6.000000
  0.134785 -0.025939  0.000000      6.000000
  0.000000  0.000000  0.049136      1.000000
  0.044928 -0.025939  0.049136      6.000000
  0.089856 -0.051879  0.049136      6.000000
  0.089856 -0.000000  0.049136      6.000000
  0.134785 -0.025939  0.049136      6.000000

 SYSTEM =  unknown system
 POSCAR =  Na4 S4

 Startparameter for this run:
   NWRITE =      2    write-flag & timer
   PREC   = accura    normal or accurate (medium, high low for compatibility)
   ISTART =      0    job   : 0-new  1-cont  2-samecut
   ICHARG =      2    charge: 1-file 2-atom 10-const
   ISPIN  =      2    spin polarized calculation?
   LNONCOLLINEAR =      F non collinear calculations
   LSORBIT =      F    spin-orbit coupling
   INIWAV =      1    electr: 0-lowe 1-rand  2-diag
   LASPH  =      T    aspherical Exc in radial PAW
 Electronic Relaxation 1
   ENCUT  =  520.0 eV  38.22 Ry    6.18 a.u.   8.28  8.28 18.92*2*pi/ulx,y,z
   ENINI  =  520.0     initial cutoff
   ENAUG  =  368.1 eV  augmentation charge cutoff
   NELM   =    200;   NELMIN=  2; NELMDL= -5     # of ELM steps
   EDIFF  = 0.1E-08   stopping-criterion for ELM
   LREAL  =      T    real-space projection
   NLSPLINE    = F    spline interpolate recip. space projectors
   LCOMPAT=      F    compatible to vasp.4.4
   GGA_COMPAT  = T    GGA compatible to vasp.4.4-vasp.4.6
   LMAXPAW     = -100 max onsite density
   LMAXMIX     =    2 max onsite mixed and CHGCAR
   VOSKOWN=      0    Vosko Wilk Nusair interpolation
   ROPT   =   -0.00025  -0.00025
 Ionic relaxation
   EDIFFG = -.5E-03   stopping-criterion for IOM
   NSW    =    200    number of steps for IOM
   NBLOCK =      1;   KBLOCK =    200    inner block; outer block
   IBRION =      2    ionic relax: 0-MD 1-quasi-New 2-CG
   NFREE  =      1    steps in history (QN), initial steepest desc. (CG)
   ISIF   =      3    stress and relaxation
   IWAVPR =     11    prediction:  0-non 1-charg 2-wave 3-comb
   ISYM   =      1    0-nonsym 1-usesym 2-fastsym
   LCORR  =      T    Harris-Foulkes like correction to forces

   POTIM  = 0.5000    time-step for ionic-motion
   TEIN   =    0.0    initial temperature
   TEBEG  =    0.0;   TEEND  =   0.0 temperature during run
   SMASS  =  -3.00    Nose mass-parameter (am)
   estimated Nose-frequenzy (Omega)   =  0.10E-29 period in steps = 0.13E+47 mass=  -0.453E-27a.u.
   SCALEE = 1.0000    scale energy and forces
   NPACO  =    256;   APACO  = 10.0  distance and # of slots for P.C.
   PSTRESS=    0.0 pullay stress

  Mass of Ions in am
   POMASS =  22.99 32.07
  Ionic Valenz
   ZVAL   =   7.00  6.00
  Atomic Wigner-Seitz radii
  virtual crystal weights
   VCA    =   1.00  1.00
   NELECT =      52.0000    total number of electrons
   NUPDOWN=      -1.0000    fix difference up-down

 DOS related values:
[...]
      2.22577     -1.28505      7.63185         0.000000     -0.000000      0.000000
      2.22577      1.28505      6.55514         0.000000     -0.000000     -0.158407
      2.22577     -1.28505      1.46724         0.000000     -0.000000     -0.158407
      2.22577     -1.28505      3.62066         0.000000     -0.000000      0.158407
      2.22577      1.28505      8.70856         0.000000     -0.000000      0.158407
    total drift:                               -0.000000     -0.000000     -0.000000

  FREE ENERGIE OF THE ION-ELECTRON SYSTEM (eV)
  free  energy   TOTEN  =       -28.43038304 eV

  energy  without entropy=      -28.43038304  energy(sigma->0) =      -28.43038304

[...]

 d Force =-0.8761273E-03[-0.664E-02, 0.489E-02]  d Energy = 0.1733847E-01-0.182E-01
 d Force = 0.2155077E+01[ 0.210E+01, 0.221E+01]  d Ewald  =-0.1808924E+02 0.202E+02

 Steepest descent step on ions:
 trial-energy change:   -0.017338  1 .order   -0.017782   -0.039953    0.004388
  (g-gl).g = 0.400E-01      g.g   = 0.400E-01  gl.gl    = 0.000E+00
 g(Force)  = 0.484E-02   g(Stress)= 0.351E-01 ortho     = 0.000E+00
 gamma     =   0.00000
 trial     =   1.00000
 opt step  =   0.89540  (harmonic =   0.90103) maximal distance =0.00684266
 next E    =   -28.447952   (d E  =  -0.01757)

[...]

 eigenvalue-minimisations  :  1600
 total energy-change (2. order) :-0.8058123E-09  ( 0.7623102E-12)
 number of electron      52.0000039 magnetization      -0.0000000
 augmentation part       14.6117466 magnetization       0.0000000

[...]

 d Force = 0.6286937E-03[ 0.570E-03, 0.687E-03]  d Energy = 0.2249028E-03 0.404E-03
 d Force =-0.2181504E+00[-0.219E+00,-0.218E+00]  d Ewald  = 0.1883279E+01-0.210E+01

[...]

 d Force = 0.2866958E-02[ 0.122E-02, 0.451E-02]  d Energy = 0.6738204E-02-0.387E-02
 d Force =-0.1752886E+01[-0.177E+01,-0.173E+01]  d Ewald  =-0.1116162E+02 0.941E+01

 Conjugate gradient step on ions:
 trial-energy change:   -0.006738  1 .order   -0.006739   -0.011209   -0.002270
  (g-gl).g = 0.113E-01      g.g   = 0.114E-01  gl.gl    = 0.400E-01
 g(Force)  = 0.615E-02   g(Stress)= 0.526E-02 ortho     = 0.149E-03
 gamma     =   0.28176
 trial     =   0.97908
 opt step  =   1.22771  (harmonic =   1.22771) maximal distance =0.00792573
 next E    =   -28.454974   (d E  =  -0.00703)

[...]

 d Force =-0.2441663E-05[-0.253E-05,-0.236E-05]  d Energy = 0.1299104E-06-0.257E-05
 d Force = 0.1268836E-01[ 0.127E-01, 0.127E-01]  d Ewald  = 0.7913308E-01-0.664E-01

[...]

 d Force = 0.3293396E-04[ 0.253E-04, 0.406E-04]  d Energy = 0.8370320E-04-0.508E-04
 d Force =-0.2036855E+00[-0.204E+00,-0.203E+00]  d Ewald  =-0.3020145E+00 0.983E-01

 Conjugate gradient step on ions:
 trial-energy change:   -0.000084  1 .order   -0.000083   -0.000093   -0.000073
  (g-gl).g = 0.400E-04      g.g   = 0.910E-04  gl.gl    = 0.114E-01
 g(Force)  = 0.382E-04   g(Stress)= 0.528E-04 ortho     =-0.119E-05
 gamma     =   0.00351
 trial     =   1.02741
 opt step  =   3.26175  (harmonic =   4.60289) maximal distance =0.00228708
 next E    =   -28.455137   (d E  =  -0.00017)

[...]

 d Force = 0.2183573E-04[-0.114E-04, 0.551E-04]  d Energy = 0.1117931E-03-0.900E-04
 d Force =-0.4445735E+00[-0.446E+00,-0.444E+00]  d Ewald  =-0.6574060E+00 0.213E+00

[...]

 d Force =-0.1490953E-03[-0.275E-03,-0.229E-04]  d Energy =-0.4380537E-04-0.105E-03
 d Force =-0.8957120E+00[-0.899E+00,-0.892E+00]  d Ewald  =-0.1317313E+01 0.422E+00

[...]

 d Force = 0.1259651E-03[ 0.833E-04, 0.169E-03]  d Energy = 0.6687883E-04 0.591E-04
 d Force = 0.5494874E+00[ 0.548E+00, 0.551E+00]  d Ewald  = 0.8090325E+00-0.260E+00

[...]

 eigenvalue-minimisations  :  1696
 total energy-change (2. order) : 0.1409717E-09  ( 0.9118084E-12)
 number of electron      52.0000045 magnetization      -0.0000000
 augmentation part       14.6130010 magnetization       0.0000000

[...]

 d Force =-0.4260911E-05[-0.178E-04, 0.928E-05]  d Energy =-0.4510647E-04 0.408E-04
 d Force = 0.6096317E-01[ 0.609E-01, 0.611E-01]  d Ewald  =-0.8178420E+00 0.879E+00

 Conjugate gradient step on ions:
 trial-energy change:    0.000045  1 .order    0.000044   -0.000084    0.000172
  (g-gl).g = 0.525E-04      g.g   = 0.486E-04  gl.gl    = 0.910E-04
 g(Force)  = 0.226E-04   g(Stress)= 0.259E-04 ortho     =-0.434E-05
 gamma     =   0.57713
 trial     =   1.81869
 opt step  =   0.58607  (harmonic =   0.59594) maximal distance =0.00006896
 next E    =   -28.455200   (d E  =  -0.00001)

[...]

 d Force = 0.5847561E-05[-0.345E-06, 0.120E-04]  d Energy = 0.5853682E-04-0.527E-04
 d Force =-0.4121404E-01[-0.413E-01,-0.412E-01]  d Ewald  = 0.5542358E+00-0.595E+00

[...]

 d Force = 0.2338643E-08[ 0.195E-08, 0.273E-08]  d Energy =-0.2191882E-09 0.256E-08
 d Force = 0.3263184E-03[ 0.326E-03, 0.326E-03]  d Ewald  =-0.4381608E-02 0.471E-02

[...]

 eigenvalue-minimisations  :  3264
 total energy-change (2. order) : 0.2694833E-07  (-0.3091605E-09)
 number of electron      52.0000043 magnetization       0.0000000
 augmentation part       14.6130664 magnetization      -0.0000000

 Broyden mixing:
  rms(total) = 0.12467E-04    rms(broyden)= 0.12467E-04
  rms(prec ) = 0.14077E-04
  weight for this iteration     100.00

 eigenvalues of (default mixing * dielectric matrix)
  average eigenvalue GAMMA=   1.6130
  2.4415  1.7450  1.7450  1.1596  0.9742

[...]

--------------------------------------- Iteration     14(   7)  ---------------------------------------

[...]

 eigenvalue-minimisations  :  3136
 total energy-change (2. order) :-0.3801688E-09  (-0.3319421E-10)
 number of electron      52.0000043 magnetization       0.0000000
 augmentation part       14.6130664 magnetization      -0.0000000

 Free energy of the ion-electron system (eV)
  alpha Z        PSCENC =        78.79302846
  Ewald energy   TEWEN  =     -2407.45937106
  -Hartree energ DENC   =     -1075.88846044
  -exchange      EXHF   =         0.00000000
  -V(xc)+E(xc)   XCENC  =       149.56024580
  PAW double counting   =      4084.23882735    -4426.90390378
  entropy T*S    EENTRO =         0.00000000
  eigenvalues    EBANDS =      -602.24924869
  atomic energy  EATOM  =      4171.45368150
  Solvation  Ediel_sol  =         0.00000000
  free energy    TOTEN  =       -28.45520087 eV

  energy without entropy =      -28.45520087  energy(sigma->0) =      -28.45520087

 average (electrostatic) potential at core
  the test charge radii are     0.9254  0.9698
  (the norm of the test charge is              1.0000)
       1 -47.2081       2 -47.2081       3 -47.0914       4 -47.0914       5 -89.0966
       6 -89.0966       7 -89.0966       8 -89.0966

 E-fermi :   1.8518     XC(G=0):  -8.1909     alpha+bet : -8.3600

 Fermi energy:         1.8518018934

[...]

 k-point    10 :       0.4000    0.2000    0.5000
  band No.  band energies     occupation
      1     -21.4080      1.00000
      2     -21.4080      1.00000
      3     -21.4000      1.00000
      4     -21.4000      1.00000
      5     -21.3969      1.00000
      6     -21.3969      1.00000
      7     -21.2976      1.00000
      8     -21.2976      1.00000
      9     -21.2913      1.00000
     10     -21.2913      1.00000
     11     -21.2871      1.00000
     12     -21.2871      1.00000
     13     -11.7499      1.00000
     14     -11.7499      1.00000
     15      -8.2840      1.00000
     16      -8.2840      1.00000
     17      -2.1526      1.00000
     18      -2.1526      1.00000
     19      -1.7440      1.00000
     20      -1.7440      1.00000
     21      -1.2284      1.00000
     22      -1.2284      1.00000
     23       0.7808      1.00000
     24       0.7808      1.00000
     25       1.1841      1.00000
     26       1.1841      1.00000
     27       4.1813      0.00000
     28       4.1813      0.00000
     29       6.7096      0.00000
     30       6.7096      0.00000
     31       8.1856      0.00000
     32       8.1856      0.00000
     33       8.6862      0.00000
     34       8.6862      0.00000
     35       8.9844      0.00000
     36       8.9844      0.00000
     37       9.5244      0.00000
     38       9.5244      0.00000
     39      10.4513      0.00000
     40      10.4513      0.00000
     41      10.8046      0.00000
     42      10.8046      0.00000
     43      12.9039      0.00000
     44      12.9039      0.00000
     45      13.0254      0.00000
     46      13.0254      0.00000
     47      13.4842      0.00000
     48      13.4842      0.00000
     49      14.1535      0.00000
     50      14.1535      0.00000
     51      15.4047      0.00000
     52      15.4047      0.00000
     53      15.9877      0.00000
     54      15.9877      0.00000
     55      16.2056      0.00000
     56      16.2056      0.00000
     57      17.0863      0.00000
     58      17.0863      0.00000
     59      17.3945      0.00000
     60      17.3945      0.00000
     61      18.2826      0.00000
     62      18.2826      0.00000
     63      18.8538      0.00000
     64      18.8538      0.00000
 Fermi energy:         1.8518018934

 spin component 2

[...]

 k-point    10 :       0.4000    0.2000    0.5000
  band No.  band energies     occupation
      1     -21.4080      1.00000
      2     -21.4080      1.00000
      3     -21.4000      1.00000
      4     -21.4000      1.00000
      5     -21.3969      1.00000
      6     -21.3969      1.00000
      7     -21.2976      1.00000
      8     -21.2976      1.00000
      9     -21.2913      1.00000
     10     -21.2913      1.00000
     11     -21.2871      1.00000
     12     -21.2871      1.00000
     13     -11.7499      1.00000
     14     -11.7499      1.00000
     15      -8.2840      1.00000
     16      -8.2840      1.00000
     17      -2.1526      1.00000
     18      -2.1526      1.00000
     19      -1.7440      1.00000
     20      -1.7440      1.00000
     21      -1.2284      1.00000
     22      -1.2284      1.00000
     23       0.7808      1.00000
     24       0.7808      1.00000
     25       1.1841      1.00000
     26       1.1841      1.00000
     27       4.1813      0.00000
     28       4.1813      0.00000
     29       6.7096      0.00000
     30       6.7096      0.00000
     31       8.1856      0.00000
     32       8.1856      0.00000
     33       8.6862      0.00000
     34       8.6862      0.00000
     35       8.9844      0.00000
     36       8.9844      0.00000
     37       9.5244      0.00000
     38       9.5244      0.00000
     39      10.4513      0.00000
     40      10.4513      0.00000
     41      10.8046      0.00000
     42      10.8046      0.00000
     43      12.9039      0.00000
     44      12.9039      0.00000
     45      13.0254      0.00000
     46      13.0254      0.00000
     47      13.4842      0.00000
     48      13.4842      0.00000
     49      14.1535      0.00000
     50      14.1535      0.00000
     51      15.4047      0.00000
     52      15.4047      0.00000
     53      15.9877      0.00000
     54      15.9877      0.00000
     55      16.2056      0.00000
     56      16.2056      0.00000
     57      17.0863      0.00000
     58      17.0863      0.00000
     59      17.3945      0.00000
     60      17.3945      0.00000
     61      18.2826      0.00000
     62      18.2826      0.00000
     63      18.8538      0.00000
     64      18.8538      0.00000

[...]

 soft charge-density along one line, spin component           2
         0         1         2         3         4         5         6         7         8         9
 total charge-density along one line

------------------------ aborting loop because EDIFF is reached ----------------------------------------

[...]

  FORCE on cell =-STRESS in cart. coord.  units (eV):
  Direction    XX          YY          ZZ          XY          YZ          ZX
  Alpha Z    78.79303    78.79303    78.79303
  Ewald    -812.48901  -812.48901  -782.48541     0.00000    -0.00000    -0.00000
  Hartree   374.85965   374.85965   326.16919     0.00000    -0.00000    -0.00000
  E(xc)    -237.17514  -237.17503  -235.96817    -0.00000     0.00000    -0.00000
  Local    -245.00232  -245.00247  -161.61035    -0.00000     0.00000     0.00000
  n-local   202.86143   209.00948   189.47400     3.31860     0.00000     0.00000
  augment    96.19542    96.19550   102.80928     0.00000     0.00000    -0.00000
  Kinetic   531.58549   546.18312   482.81777     8.20397     0.00000    -0.00000
  Fock        0.00000     0.00000     0.00000     0.00000     0.00000     0.00000
  Total       0.00141     0.00141    -0.00065     0.00000     0.00000    -0.00000
  in kB       0.01247     0.01247    -0.00577     0.00000     0.00000    -0.00000

 VOLUME and BASIS-vectors are now :
  energy-cutoff  :      520.00
  volume of cell :      181.40
      direct lattice vectors                 reciprocal lattice vectors
     2.255564471 -3.906752263 -0.000000000     0.221674001 -0.127983544 -0.000000000
     2.255564471  3.906752263  0.000000000     0.221674001  0.127983544 -0.000000000
     0.000000000 -0.000000000 10.292596541     0.000000000 -0.000000000  0.097157214

  length of vectors
     4.511128942  4.511128942 10.292596541     0.255967088  0.255967088  0.097157214

 FORCES acting on ions
    electron-ion (+dipol)            ewald-force                    non-local-force                 convergence-correction
   0.547E-15 -.428E-15 0.458E-13   0.442E-14 0.132E-14 0.568E-13   0.260E-25 0.844E-26 -.432E-27   0.414E-13 0.836E-15 0.145E-12
   -.206E-15 0.907E-16 0.340E-12   -.345E-14 0.869E-15 -.355E-13   -.277E-25 -.118E-25 -.364E-27   -.341E-14 0.217E-13 -.163E-12
   -.590E-12 -.120E-05 -.229E-11   -.597E-14 0.467E-11 0.000E+00   -.234E-17 0.123E-16 -.872E-26   0.905E-15 0.267E-10 0.128E-11
   -.849E-13 0.120E-05 -.142E-10   0.673E-15 -.467E-11 0.000E+00   -.111E-17 0.491E-17 -.248E-25   -.391E-13 -.268E-10 -.128E-11
   -.192E-07 0.450E-08 0.637E+02   0.150E-13 0.414E-11 -.712E+02   0.356E-17 -.830E-17 0.742E+01   0.240E-14 0.632E-11 0.381E-04
   -.192E-07 -.451E-08 0.637E+02   -.811E-14 -.414E-11 -.712E+02   0.688E-18 -.983E-18 0.742E+01   -.192E-13 -.630E-11 0.381E-04
   0.192E-07 -.451E-08 -.637E+02   -.116E-13 -.414E-11 0.712E+02   -.732E-17 0.600E-17 -.742E+01   0.302E-13 -.630E-11 -.381E-04
   0.192E-07 0.450E-08 -.637E+02   0.125E-13 0.414E-11 0.712E+02   0.773E-18 -.529E-17 -.742E+01   0.288E-13 0.631E-11 -.381E-04
   -.231E-11 -.321E-11 -.224E-10   0.343E-14 -.730E-15 0.000E+00   -.574E-17 0.865E-17 0.888E-15   0.420E-13 -.252E-13 0.166E-13

 POSITION                                       TOTAL-FORCE (eV/Angst)
     -0.00000      0.00000      0.00000         0.000000     -0.000000      0.000000
     -0.00000      0.00000      5.14630         0.000000     -0.000000      0.000000
      2.25556      1.30225      2.57315        -0.000000     -0.000000      0.000000
      2.25556     -1.30225      7.71945         0.000000      0.000000      0.000000
      2.25556      1.30225      6.63476         0.000000     -0.000000     -0.000397
      2.25556     -1.30225      1.48846         0.000000     -0.000000     -0.000397
      2.25556     -1.30225      3.65783         0.000000     -0.000000      0.000397
      2.25556      1.30225      8.80413         0.000000     -0.000000      0.000397
    total drift:                               -0.000000     -0.000000     -0.000000

  FREE ENERGIE OF THE ION-ELECTRON SYSTEM (eV)
  free  energy   TOTEN  =       -28.45520087 eV

  energy  without entropy=      -28.45520087  energy(sigma->0) =      -28.45520087

 d Force = 0.4438037E-07[ 0.429E-07, 0.458E-07]  d Energy = 0.1207603E-05-0.116E-05
 d Force = 0.7687388E-02[ 0.769E-02, 0.769E-02]  d Ewald  =-0.1292694E+00 0.137E+00

 Conjugate gradient step on ions:
 trial-energy change:   -0.000001  1 .order   -0.000001   -0.000002   -0.000000
  (g-gl).g =-0.137E-05      g.g   = 0.127E-05  gl.gl    = 0.486E-04
 g(Force)  = 0.348E-07   g(Stress)= 0.124E-05 ortho     =-0.368E-07
 gamma     =  -0.02819
 trial     =   1.57411
 opt step  =   1.84626  (harmonic =   1.88926) maximal distance =0.00003167
 next E    =   -28.455201   (d E  =  -0.00000)

 reached required accuracy - stopping structural energy minimisation

 total charge

[...]

 magnetization (x)

# of ion       s       p       d       tot
    1        0.000  -0.000   0.000  -0.000
    2        0.000  -0.000   0.000  -0.000
    3        0.000  -0.000   0.000  -0.000
    4        0.000  -0.000   0.000  -0.000
    5        0.000   0.000   0.000   0.000
    6        0.000   0.000   0.000   0.000
    7        0.000   0.000   0.000   0.000
    8        0.000   0.000   0.000   0.000
tot          0.000  -0.000   0.000   0.000

 BZINTS: Fermi energy:    1.851802;   52.000000 electrons
         Band energy:-0.602249E+03;  BLOECHL correction:    0.000000