 vasp.6.3.2 27Jun22 (build Mar 25 2024 10:42:18) complex
 executed on             LinuxGNU date 2024.03.26  20:32:56

 INCAR:
   ISTART = 0
   ICHARG = 2
   PREC = Accurate
   IBRION = -1
   EDIFF = 0.000000001
   EDIFFG = -0.0005
   NSW = 0
   NELM = 100
   ENCUT = 520
   ISMEAR = -5
   SIGMA = 0.05
   ISPIN = 2
   ISYM = 0
   LWAVE = False
   LCHARG = False
   LASPH = True
   LORBIT = 11
   ADDGRID = TRUE

 POTCAR:    PAW_PBE Na_pv 19Sep2006
 POTCAR:    PAW_PBE S 06Sep2000
|           W    W    AA    RRRRR   N    N  II  N    N   GGGG   !!!           |
|           W    W   A  A   R    R  NN   N  II  NN   N  G    G  !!!           |
|           W    W  A    A  R    R  N N  N  II  N N  N  G       !!!           |
|           W WW W  AAAAAA  RRRRR   N  N N  II  N  N N  G  GGG   !            |
|           WW  WW  A    A  R   R   N   NN  II  N   NN  G    G                |
|           W    W  A    A  R    R  N    N  II  N    N   GGGG   !!!           |
|     You use a magnetic or noncollinear calculation, but did not specify     |
|     the initial magnetic moment with the MAGMOM tag. Note that a            |
|     default of 1 will be used for all atoms. This ferromagnetic setup       |
|     may break the symmetry of the crystal, in particular it may rule        |
|     out finding an antiferromagnetic solution. Thence, we recommend         |
|     setting the initial magnetic moment manually or verifying carefully     |
|     that this magnetic setup is desired.                                    |

   TITEL  = PAW_PBE Na_pv 19Sep2006
   POMASS =   22.990; ZVAL   =    7.000    mass and valenz
   ENMAX  =  259.561; ENMIN  =  194.671 eV

   TITEL  = PAW_PBE S 06Sep2000
   POMASS =   32.066; ZVAL   =    6.000    mass and valenz
   ENMAX  =  258.689; ENMIN  =  194.016 eV

  PAW_PBE Na_pv 19Sep2006               :
  PAW_PBE S 06Sep2000                   :

 POSCAR: generated by phonopy
  positions in direct lattice
 exchange correlation table for  LEXCH =        8
   RHO(1)=    0.500       N(1)  =     2000
   RHO(2)=  100.500       N(2)  =     4000

 ion  position               nearest neighbor table
   1  0.100  0.475  0.750-
   2  0.600  0.475  0.750-
   3  0.100  0.975  0.750-
   4  0.600  0.975  0.750-
   5  0.350  0.275  0.250-
   6  0.850  0.275  0.250-
   7  0.350  0.775  0.250-
   8  0.850  0.775  0.250-
   9  0.150  0.225  0.750-
  10  0.650  0.225  0.750-
  11  0.150  0.725  0.750-
  12  0.650  0.725  0.750-
  13  0.400  0.025  0.250-
  14  0.900  0.025  0.250-
  15  0.400  0.525  0.250-
  16  0.900  0.525  0.250-
  17  0.000  0.000  0.500-
  18  0.500  0.000  0.500-
  19  0.000  0.500  0.500-
  20  0.500  0.500  0.500-
  21  0.250  0.250  0.500-
  22  0.750  0.250  0.500-
  23  0.250  0.750  0.500-
  24  0.750  0.750  0.500-
  25  0.250  0.250  0.000-
  26  0.750  0.250  0.000-
  27  0.250  0.750  0.000-
  28  0.750  0.750  0.000-
  29  0.000  0.000  0.000-
  30  0.500  0.000  0.000-
  31  0.000  0.500  0.000-
  32  0.500  0.500  0.000-
  33  0.053  0.225  0.136- 110 2.07  65 2.08
  34  0.553  0.225  0.135- 109 2.07  66 2.08
  35  0.053  0.725  0.135- 112 2.07  67 2.08
  36  0.553  0.725  0.135- 111 2.07  68 2.08
  37  0.303  0.025  0.865- 105 2.07  69 2.08
  38  0.803  0.025  0.865- 106 2.07  70 2.08
  39  0.303  0.525  0.865- 107 2.07  71 2.08
  40  0.803  0.525  0.865- 108 2.07  72 2.08
  41  0.197  0.475  0.365- 101 2.07  73 2.08
  42  0.697  0.475  0.365- 102 2.07  74 2.08
  43  0.197  0.975  0.365- 103 2.07  75 2.08
  44  0.697  0.975  0.365- 104 2.07  76 2.08
  45  0.447  0.275  0.635-  98 2.07  77 2.08
  46  0.947  0.275  0.635-  97 2.07  78 2.08
  47  0.447  0.775  0.635- 100 2.07  79 2.08
  48  0.947  0.775  0.635-  99 2.07  80 2.08
  49  0.447  0.275  0.865-  94 2.07  77 2.08
  50  0.947  0.275  0.865-  93 2.07  78 2.08
  51  0.447  0.775  0.865-  96 2.07  79 2.08
  52  0.947  0.775  0.865-  95 2.07  80 2.08
  53  0.197  0.475  0.135-  89 2.07  73 2.08
  54  0.697  0.475  0.135-  90 2.07  74 2.08
  55  0.197  0.975  0.135-  91 2.07  75 2.08
  56  0.697  0.975  0.135-  92 2.07  76 2.08
  57  0.303  0.025  0.635-  85 2.07  69 2.08
  58  0.803  0.025  0.635-  86 2.07  70 2.08
  59  0.303  0.525  0.635-  87 2.07  71 2.08
  60  0.803  0.525  0.635-  88 2.07  72 2.08
  61  0.053  0.225  0.365-  82 2.07  65 2.08
  62  0.553  0.225  0.365-  81 2.07  66 2.08
  63  0.053  0.725  0.365-  84 2.07  67 2.08
  64  0.553  0.725  0.365-  83 2.07  68 2.08
  65  0.133  0.176  0.250-  33 2.08  61 2.08
  66  0.633  0.176  0.250-  34 2.08  62 2.08
  67  0.133  0.676  0.250-  35 2.08  63 2.08
  68  0.633  0.676  0.250-  36 2.08  64 2.08
  69  0.383  0.074  0.750-  37 2.08  57 2.08
  70  0.883  0.074  0.750-  38 2.08  58 2.08
  71  0.383  0.574  0.750-  39 2.08  59 2.08
  72  0.883  0.574  0.750-  40 2.08  60 2.08
  73  0.117  0.426  0.250-  41 2.08  53 2.08
  74  0.617  0.426  0.250-  54 2.08  42 2.08
  75  0.117  0.926  0.250-  55 2.08  43 2.08
  76  0.617  0.926  0.250-  56 2.08  44 2.08
  77  0.367  0.324  0.750-  45 2.08  49 2.08
  78  0.867  0.324  0.750-  46 2.08  50 2.08
  79  0.367  0.824  0.750-  47 2.08  51 2.08
  80  0.867  0.824  0.750-  48 2.08  52 2.08
  81  0.417  0.146  0.397-  62 2.07
  82  0.917  0.146  0.397-  61 2.07
  83  0.417  0.646  0.397-  64 2.07
  84  0.917  0.646  0.397-  63 2.07
  85  0.167  0.104  0.603-  57 2.07
  86  0.667  0.104  0.603-  58 2.07
  87  0.167  0.604  0.603-  59 2.07
  88  0.667  0.604  0.603-  60 2.07
  89  0.333  0.396  0.103-  53 2.07
  90  0.833  0.396  0.103-  54 2.07
  91  0.333  0.896  0.103-  55 2.07
  92  0.833  0.896  0.103-  56 2.07
[...]
  98  0.583  0.354  0.603-  45 2.07
  99  0.083  0.854  0.603-  48 2.07
 100  0.583  0.854  0.603-  47 2.07
 101  0.333  0.396  0.397-  41 2.07
 102  0.833  0.396  0.397-  42 2.07
 103  0.333  0.896  0.397-  43 2.07
 104  0.833  0.896  0.397-  44 2.07
 105  0.167  0.104  0.897-  37 2.07
 106  0.667  0.104  0.897-  38 2.07
 107  0.167  0.604  0.897-  39 2.07
 108  0.667  0.604  0.897-  40 2.07
 109  0.417  0.146  0.103-  34 2.07
 110  0.917  0.146  0.103-  33 2.07
 111  0.417  0.646  0.103-  36 2.07
 112  0.917  0.646  0.103-  35 2.07

IMPORTANT INFORMATION: All symmetrisations will be switched off!
NOSYMM: (Re-)initialisation of all symmetry stuff for point group C_1.

                                     Primitive cell

  volume of cell :    2729.1342

  direct lattice vectors                    reciprocal lattice vectors
    11.773269278  0.000000000  0.000000000     0.084938174 -0.000000000  0.000000000
     0.000000000 15.678907416  0.000000000     0.000000000  0.063779954  0.000000000
     0.000000000  0.000000000 14.784683198    -0.000000000 -0.000000000  0.067637567

  length of vectors
    11.773269278 15.678907416 14.784683198     0.084938174  0.063779954  0.067637567

  position of ions in fractional coordinates (direct lattice)
     0.099956584  0.474941077  0.750000000
     0.599956584  0.474941077  0.750000000
     0.099956584  0.974941077  0.750000000
     0.599956584  0.974941077  0.750000000
     0.349956584  0.275058923  0.250000000
     0.849956584  0.275058923  0.250000000
     0.349956584  0.775058923  0.250000000
     0.849956584  0.775058923  0.250000000
     0.150043416  0.224941077  0.750000000
     0.650043416  0.224941077  0.750000000
     0.150043416  0.724941077  0.750000000
     0.650043416  0.724941077  0.750000000
     0.400043416  0.025058923  0.250000000
     0.900043416  0.025058923  0.250000000
     0.400043416  0.525058923  0.250000000
     0.900043416  0.525058923  0.250000000
     0.000000000  0.000000000  0.500000000
     0.500000000  0.000000000  0.500000000
     0.000000000  0.500000000  0.500000000
     0.500000000  0.500000000  0.500000000
     0.250000000  0.250000000  0.500000000
     0.750000000  0.250000000  0.500000000
     0.250000000  0.750000000  0.500000000
     0.750000000  0.750000000  0.500000000
     0.250000000  0.250000000  1.000000000
     0.750000000  0.250000000  1.000000000
     0.250000000  0.750000000  1.000000000
     0.750000000  0.750000000  1.000000000
     0.000000000  0.000000000  0.000000000
     0.500000000  0.000000000  1.000000000
     0.000000000  0.500000000  1.000000000
     0.500000000  0.500000000  1.000000000
     0.053004754  0.224843318  0.136131474
     0.553004754  0.224843318  0.135455098
     0.053004754  0.724843318  0.135455098
     0.553004754  0.724843318  0.135455098
     0.303004754  0.025156682  0.864544902
     0.803004754  0.025156682  0.864544902
     0.303004754  0.525156682  0.864544902
     0.803004754  0.525156682  0.864544902
     0.196995246  0.474843318  0.364544902
     0.696995246  0.474843318  0.364544902
     0.196995246  0.974843318  0.364544902
     0.696995246  0.974843318  0.364544902
     0.446995246  0.275156682  0.635455098
     0.946995246  0.275156682  0.635455098
     0.446995246  0.775156682  0.635455098
     0.946995246  0.775156682  0.635455098
     0.446995246  0.275156682  0.864544902
     0.946995246  0.275156682  0.864544902
     0.446995246  0.775156682  0.864544902
     0.946995246  0.775156682  0.864544902
     0.196995246  0.474843318  0.135455098
     0.696995246  0.474843318  0.135455098
     0.196995246  0.974843318  0.135455098
     0.696995246  0.974843318  0.135455098
     0.303004754  0.025156682  0.635455098
     0.803004754  0.025156682  0.635455098
     0.303004754  0.525156682  0.635455098
     0.803004754  0.525156682  0.635455098
[...]
     0.582701880  0.353684933  0.603458354
     0.082701880  0.853684933  0.603458354
     0.582701880  0.853684933  0.603458354
     0.332701880  0.396315067  0.396541646
     0.832701880  0.396315067  0.396541646
     0.332701880  0.896315067  0.396541646
     0.832701880  0.896315067  0.396541646
     0.167298120  0.103684933  0.896541646
     0.667298120  0.103684933  0.896541646
     0.167298120  0.603684933  0.896541646
     0.667298120  0.603684933  0.896541646
     0.417298120  0.146315067  0.103458354
     0.917298120  0.146315067  0.103458354
     0.417298120  0.646315067  0.103458354
     0.917298120  0.646315067  0.103458354

  ion indices of the primitive-cell ions
   primitive index   ion index
                 1           1
                 2           2
                 3           3
                 4           4
                 5           5
                 6           6
                 7           7
                 8           8
                 9           9
                10          10
                11          11
                12          12
                13          13
                14          14
                15          15
                16          16
                17          17
                18          18
                19          19
                20          20
                21          21
                22          22
                23          23
                24          24
                25          25
                26          26
                27          27
                28          28
                29          29
                30          30
                31          31
                32          32
                33          33
[...]
   0.304E+00 0.579E-01 -.674E-01   -.295E+00 -.507E-01 0.605E-01   -.111E-01 -.662E-02 0.810E-02   0.193E-07 0.340E-07 0.139E-07
   -.102E+00 0.138E-01 0.203E-01   0.104E+00 -.123E-01 -.207E-01   -.169E-02 -.136E-02 0.467E-03   -.100E-07 -.893E-08 -.174E-07
   0.236E-02 -.235E-02 0.887E-02   -.241E-02 0.229E-02 -.911E-02   0.533E-04 0.553E-04 0.199E-03   -.597E-07 -.294E-07 -.266E-08
   -.223E-02 -.115E-02 0.832E-02   0.229E-02 0.166E-02 -.820E-02   -.521E-04 -.438E-03 -.102E-03   0.580E-07 0.107E-07 0.148E-07
   -.164E-01 -.108E+00 0.183E-01   0.189E-01 0.108E+00 -.183E-01   -.232E-02 -.244E-03 0.917E-04   -.148E-06 -.370E-07 0.269E-08
   0.664E-02 -.136E-01 0.151E-01   -.592E-02 0.125E-01 -.152E-01   -.617E-03 0.911E-03 0.122E-03   0.146E-06 0.321E-07 0.324E-07
   -.849E-02 0.597E-01 0.194E-01   0.842E-02 -.595E-01 -.204E-01   0.494E-04 -.115E-03 0.796E-03   -.824E-07 0.298E-07 -.167E-08
   0.398E-02 0.110E-01 0.121E-01   -.377E-02 -.106E-01 -.128E-01   -.177E-03 -.286E-03 0.549E-03   0.764E-07 -.262E-07 -.163E-07
   -.298E+02 -.585E+02 0.776E+02   0.334E+02 0.678E+02 -.815E+02   -.368E+01 -.925E+01 0.378E+01   -.292E-06 -.106E-06 0.737E-06
   -.303E+02 -.584E+02 0.765E+02   0.340E+02 0.676E+02 -.804E+02   -.366E+01 -.921E+01 0.387E+01   -.185E-06 -.810E-07 0.696E-06
   -.303E+02 -.584E+02 0.765E+02   0.340E+02 0.676E+02 -.804E+02   -.366E+01 -.921E+01 0.387E+01   -.308E-06 -.969E-07 0.719E-06
   -.303E+02 -.584E+02 0.765E+02   0.340E+02 0.676E+02 -.804E+02   -.366E+01 -.921E+01 0.387E+01   -.171E-06 -.715E-07 0.709E-06
   -.303E+02 0.583E+02 -.765E+02   0.339E+02 -.676E+02 0.804E+02   -.366E+01 0.921E+01 -.387E+01   -.215E-06 0.673E-07 -.689E-06
   -.303E+02 0.583E+02 -.765E+02   0.340E+02 -.676E+02 0.804E+02   -.366E+01 0.921E+01 -.387E+01   -.260E-06 0.914E-07 -.723E-06
   -.303E+02 0.584E+02 -.765E+02   0.340E+02 -.676E+02 0.804E+02   -.366E+01 0.921E+01 -.387E+01   -.228E-06 0.603E-07 -.691E-06
   -.303E+02 0.584E+02 -.765E+02   0.340E+02 -.676E+02 0.804E+02   -.366E+01 0.921E+01 -.387E+01   -.246E-06 0.107E-06 -.738E-06
   0.303E+02 -.584E+02 -.765E+02   -.340E+02 0.676E+02 0.804E+02   0.366E+01 -.921E+01 -.387E+01   0.207E-06 -.664E-07 -.682E-06
   0.303E+02 -.584E+02 -.765E+02   -.340E+02 0.676E+02 0.804E+02   0.366E+01 -.921E+01 -.387E+01   0.267E-06 -.107E-06 -.723E-06
   0.303E+02 -.583E+02 -.765E+02   -.340E+02 0.675E+02 0.804E+02   0.366E+01 -.921E+01 -.387E+01   0.202E-06 -.702E-07 -.696E-06
   0.303E+02 -.584E+02 -.765E+02   -.340E+02 0.676E+02 0.804E+02   0.366E+01 -.921E+01 -.387E+01   0.281E-06 -.104E-06 -.730E-06
   0.303E+02 0.584E+02 0.765E+02   -.340E+02 -.676E+02 -.803E+02   0.366E+01 0.921E+01 0.387E+01   0.305E-06 0.943E-07 0.700E-06
   0.303E+02 0.584E+02 0.765E+02   -.340E+02 -.676E+02 -.803E+02   0.366E+01 0.921E+01 0.387E+01   0.175E-06 0.102E-06 0.707E-06
   0.303E+02 0.584E+02 0.765E+02   -.340E+02 -.676E+02 -.804E+02   0.366E+01 0.921E+01 0.387E+01   0.282E-06 0.638E-07 0.707E-06
   0.303E+02 0.584E+02 0.765E+02   -.340E+02 -.676E+02 -.804E+02   0.366E+01 0.921E+01 0.387E+01   0.194E-06 0.799E-07 0.697E-06
   0.303E+02 0.584E+02 -.765E+02   -.340E+02 -.676E+02 0.804E+02   0.366E+01 0.921E+01 -.387E+01   0.304E-06 0.950E-07 -.703E-06
   0.303E+02 0.584E+02 -.766E+02   -.339E+02 -.676E+02 0.805E+02   0.366E+01 0.921E+01 -.387E+01   0.169E-06 0.102E-06 -.723E-06
   0.303E+02 0.584E+02 -.765E+02   -.340E+02 -.676E+02 0.804E+02   0.366E+01 0.921E+01 -.387E+01   0.284E-06 0.637E-07 -.713E-06
   0.303E+02 0.584E+02 -.765E+02   -.340E+02 -.676E+02 0.804E+02   0.366E+01 0.921E+01 -.387E+01   0.195E-06 0.771E-07 -.703E-06
   0.303E+02 -.584E+02 0.766E+02   -.340E+02 0.676E+02 -.804E+02   0.366E+01 -.921E+01 0.387E+01   0.205E-06 -.656E-07 0.689E-06
   0.303E+02 -.584E+02 0.765E+02   -.340E+02 0.676E+02 -.804E+02   0.366E+01 -.921E+01 0.387E+01   0.272E-06 -.103E-06 0.728E-06
   0.303E+02 -.584E+02 0.766E+02   -.340E+02 0.676E+02 -.804E+02   0.366E+01 -.921E+01 0.387E+01   0.200E-06 -.687E-07 0.699E-06
   0.303E+02 -.584E+02 0.765E+02   -.340E+02 0.676E+02 -.804E+02   0.366E+01 -.922E+01 0.387E+01   0.278E-06 -.978E-07 0.736E-06
   -.303E+02 0.584E+02 0.765E+02   0.340E+02 -.676E+02 -.803E+02   -.366E+01 0.921E+01 0.387E+01   -.220E-06 0.672E-07 0.683E-06
   -.303E+02 0.584E+02 0.765E+02   0.340E+02 -.676E+02 -.803E+02   -.366E+01 0.921E+01 0.387E+01   -.260E-06 0.964E-07 0.715E-06
   -.303E+02 0.584E+02 0.765E+02   0.340E+02 -.676E+02 -.804E+02   -.366E+01 0.921E+01 0.387E+01   -.228E-06 0.592E-07 0.687E-06
   -.303E+02 0.584E+02 0.765E+02   0.340E+02 -.676E+02 -.804E+02   -.366E+01 0.921E+01 0.387E+01   -.246E-06 0.107E-06 0.732E-06
[...]
   -.491E+02 -.326E+02 0.586E+02   0.541E+02 0.360E+02 -.601E+02   -.502E+01 -.334E+01 0.142E+01   -.152E-06 -.348E-06 0.826E-06
   -.491E+02 -.326E+02 0.586E+02   0.541E+02 0.360E+02 -.601E+02   -.502E+01 -.334E+01 0.142E+01   0.108E-07 -.317E-06 0.814E-06
   -.491E+02 0.326E+02 -.587E+02   0.541E+02 -.359E+02 0.601E+02   -.502E+01 0.334E+01 -.142E+01   -.438E-07 0.317E-06 -.810E-06
   -.491E+02 0.326E+02 -.587E+02   0.541E+02 -.359E+02 0.601E+02   -.502E+01 0.334E+01 -.142E+01   -.108E-06 0.335E-06 -.821E-06
   -.491E+02 0.326E+02 -.587E+02   0.541E+02 -.360E+02 0.601E+02   -.502E+01 0.334E+01 -.142E+01   -.322E-07 0.309E-06 -.822E-06
   -.491E+02 0.326E+02 -.587E+02   0.541E+02 -.360E+02 0.601E+02   -.502E+01 0.334E+01 -.142E+01   -.115E-06 0.330E-06 -.830E-06
   0.491E+02 -.327E+02 -.587E+02   -.542E+02 0.360E+02 0.602E+02   0.502E+01 -.333E+01 -.142E+01   0.199E-07 -.312E-06 -.813E-06
   0.491E+02 -.326E+02 -.587E+02   -.541E+02 0.360E+02 0.601E+02   0.502E+01 -.334E+01 -.142E+01   0.124E-06 -.323E-06 -.828E-06
   0.491E+02 -.326E+02 -.587E+02   -.541E+02 0.359E+02 0.601E+02   0.502E+01 -.334E+01 -.142E+01   0.161E-07 -.315E-06 -.815E-06
   0.491E+02 -.326E+02 -.587E+02   -.541E+02 0.360E+02 0.601E+02   0.502E+01 -.334E+01 -.142E+01   0.137E-06 -.342E-06 -.845E-06
   0.491E+02 0.326E+02 0.587E+02   -.541E+02 -.360E+02 -.601E+02   0.502E+01 0.334E+01 0.142E+01   0.133E-06 0.332E-06 0.832E-06
   0.488E+02 0.324E+02 0.591E+02   -.538E+02 -.357E+02 -.606E+02   0.502E+01 0.333E+01 0.146E+01   0.334E-07 0.330E-06 0.833E-06
   0.491E+02 0.326E+02 0.587E+02   -.541E+02 -.360E+02 -.601E+02   0.502E+01 0.334E+01 0.142E+01   0.102E-06 0.318E-06 0.823E-06
   0.491E+02 0.326E+02 0.587E+02   -.541E+02 -.360E+02 -.601E+02   0.502E+01 0.334E+01 0.142E+01   0.500E-07 0.340E-06 0.829E-06
   0.301E-01 0.105E+00 -.670E-01   -.924E-13 0.782E-13 0.426E-13   -.301E-01 -.105E+00 0.670E-01   0.474E-07 -.215E-07 -.248E-08

 POSITION                                       TOTAL-FORCE (eV/Angst)
      1.17682      7.44656     11.08851         0.000207     -0.000475     -0.000019
      7.06345      7.44656     11.08851         0.000273     -0.000345     -0.000012
      1.17682     15.28601     11.08851         0.000242     -0.000367     -0.000095
      7.06345     15.28601     11.08851         0.000245     -0.000364     -0.000041
      4.12013      4.31262      3.69617         0.001936      0.001158     -0.000047
     10.00677      4.31262      3.69617        -0.001915      0.000608      0.002174
      4.12013     12.15208      3.69617         0.000305      0.000345      0.000028
     10.00677     12.15208      3.69617         0.000195      0.000454      0.000014
      1.76650      3.52683     11.08851        -0.000341     -0.000248     -0.000098
      7.65314      3.52683     11.08851        -0.000178     -0.000321     -0.000030
      1.76650     11.36628     11.08851        -0.000253     -0.000334     -0.000013
      7.65314     11.36628     11.08851        -0.000246     -0.000342     -0.000007
      4.70982      0.39290      3.69617         0.000018      0.000019      0.000039
     10.59645      0.39290      3.69617        -0.001561      0.000738     -0.000679
      4.70982      8.23235      3.69617        -0.000170      0.000437      0.000034
     10.59645      8.23235      3.69617        -0.000338      0.000399      0.000083
      0.00000      0.00000      7.39234        -0.000179      0.000333     -0.000103
      5.88663      0.00000      7.39234         0.000068     -0.000087      0.000023
      0.00000      7.83945      7.39234        -0.000029     -0.000085      0.000089
      5.88663      7.83945      7.39234         0.000057      0.000038      0.000048
      2.94332      3.91973      7.39234        -0.000941     -0.000173     -0.000116
      8.82995      3.91973      7.39234         0.000206     -0.000062      0.000007
      2.94332     11.75918      7.39234         0.000006      0.000021      0.000024
      8.82995     11.75918      7.39234         0.000007      0.000057     -0.000015
      2.94332      3.91973      0.00000        -0.001704      0.000576      0.001202
      8.82995      3.91973      0.00000         0.000508      0.000140      0.000084
      2.94332     11.75918      0.00000        -0.000005     -0.000006     -0.000038
      8.82995     11.75918      0.00000         0.000003      0.000075      0.000017
      0.00000      0.00000      0.00000         0.000187      0.000205      0.000140
      5.88663      0.00000      0.00000         0.000108     -0.000128      0.000009
      0.00000      7.83945      0.00000        -0.000023      0.000094     -0.000194
      5.88663      7.83945      0.00000         0.000026      0.000048     -0.000093
      0.62404      3.52530      2.01266        -0.033638      0.019998     -0.086735
      6.51067      3.52530      2.00266         0.001735     -0.000237      0.000826
      0.62404     11.36475      2.00266         0.001649     -0.000575      0.000518
      6.51067     11.36475      2.00266         0.001675     -0.000512      0.000559
      3.56736      0.39443     12.78202         0.001846      0.000448     -0.000446
      9.45399      0.39443     12.78202         0.001737      0.000331     -0.000442
      3.56736      8.23388     12.78202         0.001659      0.000539     -0.000548
      9.45399      8.23388     12.78202         0.001670      0.000510     -0.000548
      2.31928      7.44502      5.38968        -0.001513     -0.000666     -0.000293
      8.20591      7.44502      5.38968        -0.001599     -0.000571     -0.000404
      2.31928     15.28448      5.38968        -0.001459     -0.000778     -0.000292
      8.20591     15.28448      5.38968        -0.001723     -0.000488     -0.000402
      5.26260      4.31416      9.39500        -0.001646      0.000563      0.000582
     11.14923      4.31416      9.39500        -0.001545      0.000569      0.000360
      5.26260     12.15361      9.39500        -0.001641      0.000555      0.000542
     11.14923     12.15361      9.39500        -0.001635      0.000546      0.000543
      5.26260      4.31416     12.78202        -0.001657      0.000517     -0.000521
     11.14923      4.31416     12.78202        -0.001819      0.000365     -0.000297
      5.26260     12.15361     12.78202        -0.001647      0.000547     -0.000531
     11.14923     12.15361     12.78202        -0.001661      0.000531     -0.000539
      2.31928      7.44502      2.00266        -0.001590     -0.000633      0.000167
      8.20591      7.44502      2.00266        -0.001198     -0.000586      0.000733
      2.31928     15.28448      2.00266        -0.001602     -0.000839      0.000163
      8.20591     15.28448      2.00266        -0.002175     -0.001010      0.000733
      3.56736      0.39443      9.39500         0.001543      0.000671      0.000680
      9.45399      0.39443      9.39500         0.001621      0.000553      0.000680
      3.56736      8.23388      9.39500         0.001644      0.000545      0.000555
      9.45399      8.23388      9.39500         0.001668      0.000522      0.000555
[...]
      6.86031      5.54539      8.92194        -0.001117     -0.001090     -0.001340
      0.97367     13.38485      8.92194        -0.001085     -0.001139     -0.001290
      6.86031     13.38485      8.92194        -0.001106     -0.001117     -0.001306
      3.91699      6.21379      5.86274        -0.001143      0.001107      0.000951
      9.80362      6.21379      5.86274        -0.001354      0.001334      0.001193
      3.91699     14.05324      5.86274        -0.001053      0.001029      0.001331
      9.80362     14.05324      5.86274        -0.001109      0.000929      0.001276
      1.96965      1.62567     13.25508         0.000724     -0.000562      0.002204
      7.85628      1.62567     13.25508         0.001056     -0.000906      0.001504
      1.96965      9.46512     13.25508         0.001101     -0.001089      0.001349
      7.85628      9.46512     13.25508         0.001060     -0.001080      0.001342
      4.91296      2.29406      1.52960         0.000263      0.001040     -0.001184
     10.79960      2.29406      1.52960         0.017373      0.007791      0.013190
      4.91296     10.13351      1.52960         0.001054      0.001029     -0.001313
     10.79960     10.13351      1.52960         0.001128      0.001045     -0.001289
    total drift:                               -0.000001     -0.000000      0.000003

  FREE ENERGIE OF THE ION-ELECTRON SYSTEM (eV)
  free  energy   TOTEN  =      -428.47730681 eV

  energy  without entropy=     -428.47730681  energy(sigma->0) =     -428.47730681

 total charge

[...]

 magnetization (x)

# of ion       s       p       d       tot
    1        0.000  -0.000   0.000  -0.000
    2       -0.000  -0.000   0.000  -0.000
    3        0.000  -0.000   0.000  -0.000
    4        0.000  -0.000   0.000  -0.000
    5        0.000  -0.000   0.000  -0.000
    6        0.000  -0.000   0.000  -0.000
    7        0.000  -0.000   0.000  -0.000
    8        0.000  -0.000   0.000  -0.000
    9        0.000  -0.000   0.000  -0.000
   10        0.000  -0.000   0.000  -0.000
   11       -0.000  -0.000   0.000  -0.000
   12       -0.000  -0.000   0.000  -0.000
   13        0.000  -0.000   0.000  -0.000
   14        0.000  -0.000   0.000  -0.000
   15       -0.000  -0.000   0.000  -0.000
   16       -0.000  -0.000   0.000  -0.000
   17        0.000   0.000   0.000   0.000
   18        0.000   0.000   0.000   0.000
   19        0.000   0.000   0.000   0.000
   20        0.000   0.000   0.000   0.000
   21        0.000   0.000   0.000   0.000
   22        0.000   0.000   0.000   0.000
   23        0.000   0.000   0.000   0.000
   24        0.000   0.000   0.000   0.000
   25        0.000   0.000   0.000   0.000
   26        0.000   0.000   0.000   0.000
   27        0.000   0.000   0.000   0.000
   28        0.000   0.000   0.000   0.000
   29        0.000   0.000   0.000   0.000
   30        0.000   0.000   0.000   0.000
   31        0.000   0.000   0.000   0.000
   32        0.000   0.000   0.000   0.000
   33       -0.000  -0.000   0.000  -0.000
   34       -0.000  -0.000   0.000  -0.000
   35       -0.000  -0.000   0.000  -0.000
   36       -0.000  -0.000   0.000  -0.000
   37       -0.000  -0.000   0.000  -0.000
   38       -0.000  -0.000   0.000  -0.000
   39       -0.000  -0.000   0.000  -0.000
   40       -0.000  -0.000   0.000  -0.000
   41       -0.000  -0.000   0.000  -0.000
   42       -0.000  -0.000   0.000  -0.000
   43       -0.000  -0.000   0.000  -0.000
   44       -0.000  -0.000   0.000  -0.000
   45       -0.000  -0.000   0.000  -0.000
   46       -0.000  -0.000   0.000  -0.000
   47       -0.000  -0.000   0.000  -0.000
   48       -0.000  -0.000   0.000  -0.000
   49       -0.000  -0.000   0.000  -0.000
   50       -0.000  -0.000   0.000  -0.000
   51       -0.000  -0.000   0.000  -0.000
   52       -0.000  -0.000   0.000  -0.000
   53       -0.000  -0.000   0.000  -0.000
   54       -0.000  -0.000   0.000  -0.000
   55       -0.000  -0.000   0.000  -0.000
   56       -0.000  -0.000   0.000  -0.000
   57       -0.000  -0.000   0.000  -0.000
   58       -0.000  -0.000   0.000  -0.000
   59       -0.000  -0.000   0.000  -0.000
   60       -0.000  -0.000   0.000  -0.000
[...]
   98       -0.000  -0.000   0.000  -0.000
   99       -0.000  -0.000   0.000  -0.000
  100       -0.000  -0.000   0.000  -0.000
  101       -0.000  -0.000   0.000  -0.000
  102       -0.000  -0.000   0.000  -0.000
  103       -0.000  -0.000   0.000  -0.000
  104       -0.000  -0.000   0.000  -0.000
  105       -0.000  -0.000   0.000  -0.000
  106       -0.000  -0.000   0.000  -0.000
  107       -0.000  -0.000   0.000  -0.000
  108       -0.000  -0.000   0.000  -0.000
  109       -0.000  -0.000   0.000  -0.000
  110       -0.000  -0.000   0.000  -0.000
  111       -0.000  -0.000   0.000  -0.000
  112       -0.000  -0.000   0.000  -0.000
tot         -0.000  -0.000   0.000  -0.000

 BZINTS: Fermi energy:    2.047916;  704.000000 electrons
         Band energy:-0.608997E+04;  BLOECHL correction:   -0.000000