 vasp.6.3.2 27Jun22 (build Mar 25 2024 10:42:18) complex
 executed on             LinuxGNU date 2024.05.15  13:46:26

 INCAR:
   ALGO = All
   EDIFF = 1e-08
   EDIFFG = -0.001
   ENAUG = 1360
   ENCUT = 680
   IBRION = 2
   ISIF = 3
   ISMEAR = 2
   ISPIN = 2
   KSPACING = 0.22
   LAECHG = True
   LASPH = True
   LCHARG = True
   LELF = False
   LMIXTAU = True
   LORBIT = 11
   LREAL = Auto
   LVTOT = True
   LWAVE = False
   MAGMOM = 3*-0.0
   METAGGA = R2scan
   NELM = 200
   NSW = 99
   PREC = Accurate
   SIGMA = 0.2

 POTCAR:    PAW_PBE Na_pv 19Sep2006
 POTCAR:    PAW_PBE S 06Sep2000
 WARNING: For LVTOT=.TRUE., VASP.5.x writes the TOTAL local potential to the
     file LOCPOT. If you want only the Hartree contributions, use LVHAR=.TRUE.
     instead.

   TITEL  = PAW_PBE Na_pv 19Sep2006
   POMASS =   22.990; ZVAL   =    7.000    mass and valenz
   ENMAX  =  259.561; ENMIN  =  194.671 eV

   TITEL  = PAW_PBE S 06Sep2000
   POMASS =   32.066; ZVAL   =    6.000    mass and valenz
   ENMAX  =  258.689; ENMIN  =  194.016 eV

 Optimization of the real space projectors (new method)

 maximal supplied QI-value         = 17.01
 optimisation between [QCUT,QGAM] = [ 13.27, 26.70] = [ 49.28,199.66] Ry
 Optimized for a Real-space Cutoff    1.38 Angstroem

   l    n(q)    QCUT    max X(q) W(low)/X(q) W(high)/X(q)  e(spline)
   1     11    13.266     4.940    0.11E-03    0.62E-04    0.24E-06
   1     11    13.266     6.253    0.16E-03    0.89E-04    0.35E-06
   0     11    13.266    37.438    0.39E-04    0.39E-05    0.18E-06
   0     11    13.266     9.606    0.17E-04    0.30E-05    0.12E-06
 Optimization of the real space projectors (new method)

 maximal supplied QI-value         = 19.84
 optimisation between [QCUT,QGAM] = [ 13.29, 26.59] = [ 49.49,197.96] Ry
 Optimized for a Real-space Cutoff    1.16 Angstroem

   l    n(q)    QCUT    max X(q) W(low)/X(q) W(high)/X(q)  e(spline)
   0      9    13.294   187.594    0.14E-03    0.96E-04    0.62E-07
   0      9    13.294   164.243    0.14E-03    0.95E-04    0.61E-07
   1      9    13.294    67.533    0.58E-04    0.17E-03    0.14E-06
   1      9    13.294    50.729    0.57E-04    0.16E-03    0.13E-06
  PAW_PBE Na_pv 19Sep2006               :
  PAW_PBE S 06Sep2000                   :

 POSCAR: Na2 S1
  positions in direct lattice

 METAGGA = R2SCA    LMAXTAU =  6    LMIXTAU =  T

 ion  position               nearest neighbor table
   1  0.250  0.250  0.250-
   2  0.750  0.750  0.750-
   3  0.000  0.000  0.000-

  LATTYP: Found a face centered cubic cell.
 ALAT       =     6.4983096011

  Lattice vectors:

 A1 = (   3.9793850000,   0.0000000000,   2.2974990000)
 A2 = (   1.3264620000,   3.7518010000,   2.2974990000)
 A3 = (   0.0000000000,   0.0000000000,   4.5949980000)

Analysis of symmetry for initial positions (statically):
 Subroutine PRICEL returns:
 Original cell was already a primitive cell.

 Routine SETGRP: Setting up the symmetry group for a
 face centered cubic supercell.

 Subroutine GETGRP returns: Found 48 space group operations
 (whereof 48 operations were pure point group operations)
 out of a pool of 48 trial point group operations.

The static configuration has the point symmetry O_h .

Analysis of symmetry for dynamics (positions and initial velocities):
 Subroutine PRICEL returns:
 Original cell was already a primitive cell.

[...]

The dynamic configuration has the point symmetry O_h .

Analysis of structural, dynamic, and magnetic symmetry:
 Subroutine PRICEL returns:
 Original cell was already a primitive cell.

 Routine SETGRP: Setting up the symmetry group for a
 face centered cubic supercell.

 Subroutine GETGRP returns: Found 48 space group operations
 (whereof 48 operations were pure point group operations)
 out of a pool of 48 trial point group operations.

The overall configuration has the point symmetry O_h .

 Subroutine INISYM returns: Found 48 space group operations
 (whereof 48 operations are pure point group operations),
 and found     1 'primitive' translations

                                     Primitive cell

  volume of cell :      68.6027

  direct lattice vectors                    reciprocal lattice vectors
     3.979385000  0.000000000  2.297499000     0.251295112 -0.088846241  0.000000000
     1.326462000  3.751801000  2.297499000     0.000000000  0.266538657  0.000000000
     0.000000000  0.000000000  4.594998000    -0.125647556 -0.088846208  0.217627951

  length of vectors
     4.594998001  4.594998785  4.594998000     0.266538718  0.266538657  0.266538707

  position of ions in fractional coordinates (direct lattice)
     0.250000000  0.250000000  0.250000000
     0.750000000  0.750000000  0.750000000
     0.000000000  0.000000000  0.000000000

  ion indices of the primitive-cell ions
   primitive index   ion index
                 1           1
                 2           2
                 3           3

 KPOINTS: pymatgen with grid density = 694 / numbe

Automatic generation of k-mesh.
 Grid dimensions read from file:
 generate k-points for:    3    3    3

 Generating k-lattice:

  Cartesian coordinates                     Fractional coordinates (reciprocal lattice)
     0.083765037 -0.029615414  0.000000000     0.333333333 -0.000000000  0.000000000
     0.000000000  0.088846219  0.000000000     0.000000000  0.333333333  0.000000000
    -0.041882519 -0.029615403  0.072542650     0.000000000 -0.000000000  0.333333333

  Length of vectors
     0.088846239  0.088846219  0.088846236

  Shift w.r.t. Gamma in fractional coordinates (k-lattice)
     0.000000000  0.000000000  0.000000000

 Subroutine IBZKPT returns following result:

 Found      4 irreducible k-points:

 Following reciprocal coordinates:
            Coordinates               Weight
  0.000000  0.000000  0.000000      1.000000
  0.333333  0.000000  0.000000      8.000000
  0.333333  0.333333  0.000000      6.000000
 -0.333333  0.333333  0.000000     12.000000

 Following cartesian coordinates:
            Coordinates               Weight
  0.000000  0.000000  0.000000      1.000000
  0.083765 -0.029615  0.000000      8.000000
  0.083765  0.059231  0.000000      6.000000
 -0.083765  0.118462  0.000000     12.000000

 SYSTEM =  unknown system
 POSCAR =  Na2 S1

 Startparameter for this run:
   NWRITE =      2    write-flag & timer
   PREC   = accura    normal or accurate (medium, high low for compatibility)
   ISTART =      0    job   : 0-new  1-cont  2-samecut
   ICHARG =      2    charge: 1-file 2-atom 10-const
   ISPIN  =      2    spin polarized calculation?
   LNONCOLLINEAR =      F non collinear calculations
   LSORBIT =      F    spin-orbit coupling
   INIWAV =      1    electr: 0-lowe 1-rand  2-diag
   LASPH  =      T    aspherical Exc in radial PAW
 Electronic Relaxation 1
   ENCUT  =  680.0 eV  49.98 Ry    7.07 a.u.   9.77  9.77  9.77*2*pi/ulx,y,z
   ENINI  =  680.0     initial cutoff
   ENAUG  = 1360.0 eV  augmentation charge cutoff
   NELM   =    200;   NELMIN=  2; NELMDL=  0     # of ELM steps
   EDIFF  = 0.1E-07   stopping-criterion for ELM
   LREAL  =      T    real-space projection
   NLSPLINE    = F    spline interpolate recip. space projectors
   LCOMPAT=      F    compatible to vasp.4.4
   GGA_COMPAT  = T    GGA compatible to vasp.4.4-vasp.4.6
   LMAXPAW     = -100 max onsite density
   LMAXMIX     =    2 max onsite mixed and CHGCAR
   VOSKOWN=      0    Vosko Wilk Nusair interpolation
   ROPT   =   -0.00025  -0.00025
 Ionic relaxation
   EDIFFG = -.1E-02   stopping-criterion for IOM
   NSW    =     99    number of steps for IOM
   NBLOCK =      1;   KBLOCK =     99    inner block; outer block
   IBRION =      2    ionic relax: 0-MD 1-quasi-New 2-CG
   NFREE  =      1    steps in history (QN), initial steepest desc. (CG)
   ISIF   =      3    stress and relaxation
   IWAVPR =     11    prediction:  0-non 1-charg 2-wave 3-comb
   ISYM   =      2    0-nonsym 1-usesym 2-fastsym
   LCORR  =      T    Harris-Foulkes like correction to forces

   POTIM  = 0.5000    time-step for ionic-motion
   TEIN   =    0.0    initial temperature
   TEBEG  =    0.0;   TEEND  =   0.0 temperature during run
   SMASS  =  -3.00    Nose mass-parameter (am)
   estimated Nose-frequenzy (Omega)   =  0.10E-29 period in steps = 0.13E+47 mass=  -0.483E-27a.u.
   SCALEE = 1.0000    scale energy and forces
   NPACO  =    256;   APACO  = 10.0  distance and # of slots for P.C.
   PSTRESS=    0.0 pullay stress

  Mass of Ions in am
   POMASS =  22.99 32.07
  Ionic Valenz
   ZVAL   =   7.00  6.00
  Atomic Wigner-Seitz radii
  virtual crystal weights
   VCA    =   1.00  1.00
   NELECT =      20.0000    total number of electrons
   NUPDOWN=      -1.0000    fix difference up-down

 DOS related values:
   EMIN   =  10.00;   EMAX   =-10.00  energy-range for DOS
   EFERMI =   0.00
   ISMEAR =     2;   SIGMA  =   0.20  broadening in eV -4-tet -1-fermi 0-gaus

 Electronic relaxation 2 (details)
   IALGO  =     58    algorithm
   LDIAG  =      T    sub-space diagonalisation (order eigenvalues)
   LSUBROT=      F    optimize rotation matrix (better conditioning)
   TURBO    =      0    0=normal 1=particle mesh
   IRESTART =      0    0=no restart 2=restart with 2 vectors
   NREBOOT  =      0    no. of reboots
   NMIN     =      0    reboot dimension
   EREF     =   0.00    reference energy to select bands
   IMIX   =      4    mixing-type and parameters
     AMIX     =   0.40;   BMIX     =  1.00
     AMIX_MAG =   1.60;   BMIX_MAG =  1.00
     AMIN     =   0.10
     WC   =   100.;   INIMIX=   1;  MIXPRE=   1;  MAXMIX= -45

 Intra band minimization:
   WEIMIN = 0.0010     energy-eigenvalue tresh-hold
   EBREAK =  0.78E-10  absolut break condition
   DEPER  =   0.30     relativ break condition

   TIME   =   0.40     timestep for ELM

  volume/ion in A,a.u.               =      22.87       154.32
  Fermi-wavevector in a.u.,A,eV,Ry     =   1.085520  2.051335 16.032473  1.178354
  Thomas-Fermi vector in A             =   2.221635

 Write flags
   LWAVE        =      F    write WAVECAR
   LDOWNSAMPLE  =      F    k-point downsampling of WAVECAR
   LCHARG       =      T    write CHGCAR
   LVTOT        =      T    write LOCPOT, total local potential
   LVHAR        =      F    write LOCPOT, Hartree potential only
   LELF         =      F    write electronic localiz. function (ELF)
   LORBIT       =     11    0 simple, 1 ext, 2 COOP (PROOUT), +10 PAW based schemes

 Dipole corrections
   LMONO  =      F    monopole corrections only (constant potential shift)
   LDIPOL =      F    correct potential (dipole corrections)
   IDIPOL =      0    1-x, 2-y, 3-z, 4-all directions
   EPSILON=  1.0000000 bulk dielectric constant

 Exchange correlation treatment:
   GGA     =    --    GGA type
   VOSKOWN =     0    Vosko Wilk Nusair interpolation
   LHFCALC =     F    Hartree Fock is set to
   LHFONE  =     F    Hartree Fock one center treatment
   AEXX    =    0.0000 exact exchange contribution

 Linear response parameters
   LEPSILON=     F    determine dielectric tensor
   LRPA    =     F    only Hartree local field effects (RPA)
   LNABLA  =     F    use nabla operator in PAW spheres
   LVEL    =     F    velocity operator in full k-point grid
[...]
 Maximum index for augmentation-charges         1459 (set IRDMAX)

 First call to EWALD:  gamma=   0.433
 Maximum number of real-space cells 3x 3x 3
 Maximum number of reciprocal cells 3x 3x 3

--------------------------------------- Iteration      1(   1)  ---------------------------------------

 eigenvalue-minimisations  :   512
 total energy-change (2. order) : 0.3050442E+02  (-0.1491381E+04)
 number of electron      20.0000000 magnetization       0.0000000
 augmentation part       20.0000000 magnetization       0.0000000

 Free energy of the ion-electron system (eV)
  alpha Z        PSCENC =        32.73109286
  Ewald energy   TEWEN  =      -948.29612643
  -Hartree energ DENC   =      -502.38504025
  -exchange      EXHF   =         0.00000000
  -V(xc)+E(xc)   XCENC  =        77.39942210
  PAW double counting   =      1206.55149748    -1386.00871492
  entropy T*S    EENTRO =        -0.00663238
  eigenvalues    EBANDS =      -258.38912019
  atomic energy  EATOM  =      1808.90803902
  free energy    TOTEN  =        30.50441730 eV

  energy without entropy =       30.51104968  energy(sigma->0) =       30.50607539

[...]

 eigenvalue-minimisations  :   704
 total energy-change (2. order) :-0.5137080E+02  (-0.4982184E+02)
 number of electron      20.0000000 magnetization       0.0000000
 augmentation part       20.0000000 magnetization       0.0000000

[...]

  average scaling for gradient   6.0188

 average (electrostatic) potential at core
  the test charge radii are     0.9254  0.9698
  (the norm of the test charge is              1.0000)
       1 -52.5064       2 -52.5064       3 -91.5425

 E-fermi :   0.0308     XC(G=0):  -8.3382     alpha+bet : -8.0691

 Fermi energy:         0.0307820054

 spin component 1

 k-point     1 :       0.0000    0.0000    0.0000
  band No.  band energies     occupation
      1     -23.0683      1.00000
      2     -23.0679      1.00000
      3     -23.0679      1.00000
      4     -23.0152      1.00000
      5     -23.0149      1.00000
      6     -23.0149      1.00000
      7     -10.6099      1.00000
      8      -0.0282      0.80607
      9      -0.0282      0.80607
     10      -0.0282      0.80586
     11       3.0908      0.00000
     12       8.4463      0.00000
     13       8.4463      0.00000
     14       8.4469      0.00000
     15       9.8308      0.00000
     16       9.8308      0.00000
     17      11.9265      0.00000
     18      11.9265      0.00000
     19      11.9268      0.00000
     20      15.0183      0.00000
     21      15.0544      0.00000
     22      20.7825      0.00000
     23      20.7825      0.00000
     24      20.7829      0.00000
     25      20.9162      0.00000
     26      20.9162      0.00000
     27      20.9172      0.00000
     28      22.2206      0.00000
     29      22.2206      0.00000
     30      25.7928      0.00000
     31      25.7933      0.00000
     32      25.7933      0.00000

[...]

 k-point     4 :      -0.3333    0.3333    0.0000
  band No.  band energies     occupation
      1     -23.0886      1.00000
      2     -23.0665      1.00000
      3     -23.0636      1.00000
      4     -23.0247      1.00000
      5     -23.0228      1.00000
      6     -23.0043      1.00000
      7     -10.2889      1.00000
      8      -1.1385      1.00000
      9      -1.0693      1.00000
     10      -0.3031      1.00050
     11       5.3173      0.00000
     12       6.9988      0.00000
     13       8.4329      0.00000
     14       8.7640      0.00000
     15      10.0543      0.00000
     16      10.8207      0.00000
     17      14.0281      0.00000
     18      14.1040      0.00000
     19      15.0360      0.00000
     20      15.3601      0.00000
     21      16.2409      0.00000
     22      16.4305      0.00000
     23      17.1657      0.00000
     24      19.8848      0.00000
     25      20.6225      0.00000
     26      20.9517      0.00000
     27      22.0959      0.00000
     28      22.3501      0.00000
     29      22.9811      0.00000
     30      23.0635      0.00000
     31      24.4519      0.00000
     32      24.6105      0.00000
 Fermi energy:         0.0307820054

[...]

 soft charge-density along one line, spin component           1
         0         1         2         3         4         5         6         7         8         9
 total charge-density along one line

[...]

------------------------ aborting loop because EDIFF is reached ----------------------------------------

 total charge

# of ion       s       p       d       tot
    1        0.058   5.991   0.000   6.048
    2        0.058   5.991   0.000   6.048
    3        1.296   2.468   0.000   3.764
tot          1.411  14.449   0.000  15.860

 magnetization (x)

[...]

  FORCE on cell =-STRESS in cart. coord.  units (eV):
  Direction    XX          YY          ZZ          XY          YZ          ZX
  Alpha Z    32.73109    32.73109    32.73109
  Ewald    -316.09889  -316.09897  -316.09890    -0.00001     0.00000    -0.00000
  Hartree   169.44974   169.44975   169.44974     0.00000     0.00000     0.00000
  E(xc)    -104.64066  -104.56576  -104.47512     0.00726    -0.00015    -0.00020
  Local     -61.91744   -61.91744   -61.91746    -0.00001    -0.00001    -0.00002
  n-local    25.03878    26.72884    28.82014    -0.06371    -0.00019    -0.00019
  augment    74.11488    74.11488    74.11495     0.00003     0.00004     0.00006
  Kinetic   175.76106   179.19734   183.45590     0.46388     0.00026     0.00056
  Fock        0.00000     0.00000     0.00000     0.00000     0.00000     0.00000
  Total       0.05288     0.05288     0.05288     0.00000     0.00000     0.00000
  in kB       1.23498     1.23498     1.23498     0.00000     0.00000     0.00000

 VOLUME and BASIS-vectors are now :
  energy-cutoff  :      680.00
  volume of cell :       68.60
      direct lattice vectors                 reciprocal lattice vectors
     3.979385000  0.000000000  2.297499000     0.251295112 -0.088846241  0.000000000
     1.326462000  3.751801000  2.297499000     0.000000000  0.266538657  0.000000000
     0.000000000  0.000000000  4.594998000    -0.125647556 -0.088846208  0.217627951

[...]

 FORCES acting on ions:
    Electron-Ion                     Ewald-Force                    Non-Local-Force
   0.585E-05 -.298E-04 0.309E-09   -.734E-05 0.374E-04 -.948E-15   -.340E-17 -.237E-17 0.151E-16
   -.585E-05 0.298E-04 -.311E-09   0.734E-05 -.374E-04 -.441E-15   0.644E-17 0.973E-17 -.910E-17
   0.213E-14 0.482E-14 0.143E-13   -.231E-14 -.292E-14 0.128E-14   0.516E-24 -.965E-25 -.378E-24
   0.896E-12 0.223E-11 -.156E-11   -.382E-15 0.444E-16 -.112E-15   0.304E-17 0.736E-17 0.604E-17

 POSITION                                       TOTAL-FORCE (eV/Angst)
      1.32646      0.93795      2.29750        -0.000000     -0.000000     -0.000000
      3.97939      2.81385      6.89250         0.000000      0.000000      0.000000
      0.00000      0.00000      0.00000        -0.000000      0.000000      0.000000
    total drift:                                0.000000      0.000000     -0.000000

  FREE ENERGIE OF THE ION-ELECTRON SYSTEM (eV)
  free  energy   TOTEN  =       -18.94192040 eV

  energy  without entropy=      -18.94974614  energy(sigma->0) =      -18.94387684

[...]

 eigenvalue-minimisations  :     0
 total energy-change (2. order) : 0.1244303E-02  ( 0.5371015E-03)
 number of electron      19.9999988 magnetization       0.0000001
 augmentation part        8.1750299 magnetization      -0.0000000

[...]

 eigenvalue-minimisations  :     0
 total energy-change (2. order) :-0.8088645E-04  ( 0.3956143E-03)
 number of electron      19.9999988 magnetization       0.0000001
 augmentation part        8.1753150 magnetization      -0.0000000

[...]

------------------------ aborting loop EDIFF was not reached (unconverged)  ----------------------------

[...]

 d Force = 0.0000000E+00[ 0.000E+00, 0.000E+00]  d Energy =-0.3522253E-04 0.352E-04
 d Force = 0.0000000E+00[ 0.000E+00, 0.000E+00]  d Ewald  =-0.8057021E+00 0.806E+00

 Steepest descent step on ions:
 trial-energy change:    0.000035  1 .order   -0.000160   -0.000135   -0.000186
  (g-gl).g = 0.135E-03      g.g   = 0.135E-03  gl.gl    = 0.000E+00
 g(Force)  = 0.146E-42   g(Stress)= 0.135E-03 ortho     = 0.000E+00
 gamma     =   0.00000
 trial     =   1.00000
 opt step  =   4.00000  (harmonic =   4.00000) maximal distance =0.00000000
 next E    =   -18.942869   (d E  =  -0.00095)

[...]

 d Force = 0.0000000E+00[ 0.000E+00, 0.000E+00]  d Energy = 0.3171568E-03-0.317E-03
 d Force = 0.0000000E+00[ 0.000E+00, 0.000E+00]  d Ewald  = 0.1191499E+01-0.119E+01

[...]

 eigenvalue-minimisations  :     0
 total energy-change (2. order) : 0.4442376E-04  ( 0.1892055E-06)
 number of electron      19.9999989 magnetization       0.0000000
 augmentation part        8.1796313 magnetization      -0.0000000

[...]

 eigenvalue-minimisations  :     0
 total energy-change (2. order) :-0.5259403E-07  ( 0.1756407E-07)
 number of electron      19.9999989 magnetization       0.0000000
 augmentation part        8.1799789 magnetization      -0.0000000

[...]

------------------------ aborting loop EDIFF was not reached (unconverged)  ----------------------------

[...]

 d Force = 0.0000000E+00[ 0.000E+00, 0.000E+00]  d Energy =-0.2723780E-04 0.272E-04
 d Force = 0.0000000E+00[ 0.000E+00, 0.000E+00]  d Ewald  =-0.1197442E+00 0.120E+00

[...]

 eigenvalue-minimisations  :     0
 total energy-change (2. order) :-0.4097149E-04  (-0.5104191E-09)
 number of electron      19.9999989 magnetization       0.0000000
 augmentation part        8.1805438 magnetization      -0.0000000

[...]

--------------------------------------- Iteration      9(   2)  ---------------------------------------

 eigenvalue-minimisations  :     0
 total energy-change (2. order) : 0.1963372E-08  (-0.4870308E-09)
 number of electron      19.9999989 magnetization       0.0000000
 augmentation part        8.1805437 magnetization      -0.0000000

 Free energy of the ion-electron system (eV)
  alpha Z        PSCENC =        32.60713339
  Ewald energy   TEWEN  =      -947.09748021
  -Hartree energ DENC   =      -509.00903058
  -exchange      EXHF   =         0.00000000
  -V(xc)+E(xc)   XCENC  =        78.73183093
  PAW double counting   =      1569.75801060    -1751.10718294
  entropy T*S    EENTRO =         0.00784183
  eigenvalues    EBANDS =      -301.74105485
  atomic energy  EATOM  =      1808.90803902
  free energy    TOTEN  =       -18.94189280 eV

  energy without entropy =      -18.94973464  energy(sigma->0) =      -18.94385326

  average scaling for gradient   0.9927

 average (electrostatic) potential at core
  the test charge radii are     0.9254  0.9698
  (the norm of the test charge is              1.0000)
       1 -52.5313       2 -52.5313       3 -91.5664

 E-fermi :   0.0202     XC(G=0):  -8.3230     alpha+bet : -8.0385

 Fermi energy:         0.0201965151

[...]

 k-point     4 :      -0.3333    0.3333    0.0000
  band No.  band energies     occupation
      1     -23.1120      1.00000
      2     -23.0902      1.00000
      3     -23.0873      1.00000
      4     -23.0489      1.00000
      5     -23.0470      1.00000
      6     -23.0287      1.00000
      7     -10.3054      1.00000
      8      -1.1520      1.00000
      9      -1.0831      1.00000
     10      -0.3205      1.00064
     11       5.2957      0.00000
     12       6.9632      0.00000
     13       8.3934      0.00000
     14       8.7350      0.00000
     15      10.0151      0.00000
     16      10.7880      0.00000
     17      13.9846      0.00000
     18      14.0618      0.00000
     19      14.9829      0.00000
     20      15.3103      0.00000
     21      16.1987      0.00000
     22      16.3783      0.00000
     23      17.1136      0.00000
     24      19.8297      0.00000
     25      20.5654      0.00000
     26      20.8922      0.00000
     27      22.0283      0.00000
     28      22.2878      0.00000
     29      22.9128      0.00000
     30      22.9897      0.00000
     31      24.3816      0.00000
     32      24.5423      0.00000
 Fermi energy:         0.0201965151

 spin component 2

[...]

 k-point     4 :      -0.3333    0.3333    0.0000
  band No.  band energies     occupation
      1     -23.1120      1.00000
      2     -23.0902      1.00000
      3     -23.0873      1.00000
      4     -23.0489      1.00000
      5     -23.0470      1.00000
      6     -23.0287      1.00000
      7     -10.3054      1.00000
      8      -1.1520      1.00000
      9      -1.0831      1.00000
     10      -0.3205      1.00064
     11       5.2957      0.00000
     12       6.9632      0.00000
     13       8.3934      0.00000
     14       8.7350      0.00000
     15      10.0151      0.00000
     16      10.7880      0.00000
     17      13.9846      0.00000
     18      14.0618      0.00000
     19      14.9829      0.00000
     20      15.3103      0.00000
     21      16.1987      0.00000
     22      16.3783      0.00000
     23      17.1136      0.00000
     24      19.8297      0.00000
     25      20.5654      0.00000
     26      20.8922      0.00000
     27      22.0283      0.00000
     28      22.2878      0.00000
     29      22.9128      0.00000
     30      22.9897      0.00000
     31      24.3816      0.00000
     32      24.5423      0.00000

[...]

 soft charge-density along one line, spin component           2
         0         1         2         3         4         5         6         7         8         9
 total charge-density along one line

------------------------ aborting loop because EDIFF is reached ----------------------------------------

[...]

  FORCE on cell =-STRESS in cart. coord.  units (eV):
  Direction    XX          YY          ZZ          XY          YZ          ZX
  Alpha Z    32.60713    32.60713    32.60713
  Ewald    -315.69934  -315.69942  -315.69935    -0.00001    -0.00000    -0.00000
  Hartree   169.66967   169.66968   169.66968     0.00000     0.00000     0.00000
  E(xc)    -104.62679  -104.55198  -104.46139     0.00727    -0.00014    -0.00019
  Local     -62.38790   -62.38789   -62.38791    -0.00001    -0.00001    -0.00002
  n-local    24.99938    26.68461    28.77030    -0.06246    -0.00019    -0.00019
  augment    74.12197    74.12192    74.12222     0.00009     0.00016     0.00022
  Kinetic   175.71190   179.14044   183.39126     0.46306     0.00025     0.00055
  Fock        0.00000     0.00000     0.00000     0.00000     0.00000     0.00000
  Total      -0.00252    -0.00252    -0.00252    -0.00000     0.00000     0.00000
  in kB      -0.05856    -0.05856    -0.05856    -0.00000     0.00000     0.00000

 VOLUME and BASIS-vectors are now :
  energy-cutoff  :      680.00
  volume of cell :       68.86
      direct lattice vectors                 reciprocal lattice vectors
     3.984421307  0.000000000  2.300406713     0.250977475 -0.088733940 -0.000000000
     1.328140770  3.756549280  2.300406713    -0.000000000  0.266201752 -0.000000000
     0.000000000  0.000000000  4.600813427    -0.125488738 -0.088733906  0.217352869

  length of vectors
     4.600813428  4.600814215  4.600813427     0.266201813  0.266201752  0.266201802

 FORCES acting on ions:
    Electron-Ion                     Ewald-Force                    Non-Local-Force
   0.585E-05 -.298E-04 0.172E-09   -.734E-05 0.374E-04 -.138E-14   -.708E-17 0.156E-16 -.870E-17
   -.585E-05 0.298E-04 -.174E-09   0.734E-05 -.374E-04 0.143E-14   0.991E-17 -.861E-17 0.165E-16
   0.890E-14 0.530E-14 0.113E-13   -.107E-14 -.172E-16 0.178E-15   0.114E-25 0.571E-27 0.287E-25
   0.795E-12 0.226E-11 -.155E-11   -.120E-14 -.119E-15 0.222E-15   0.282E-17 0.703E-17 0.778E-17

 POSITION                                       TOTAL-FORCE (eV/Angst)
      1.32814      0.93914      2.30041        -0.000000     -0.000000     -0.000000
      3.98442      2.81741      6.90122         0.000000      0.000000      0.000000
     -0.00000      0.00000      0.00000        -0.000000     -0.000000      0.000000
    total drift:                                0.000000      0.000000     -0.000000

  FREE ENERGIE OF THE ION-ELECTRON SYSTEM (eV)
  free  energy   TOTEN  =       -18.94189280 eV

  energy  without entropy=      -18.94973464  energy(sigma->0) =      -18.94385326

 d Force = 0.0000000E+00[ 0.000E+00, 0.000E+00]  d Energy = 0.4091694E-04-0.409E-04
 d Force = 0.0000000E+00[ 0.000E+00, 0.000E+00]  d Ewald  = 0.9643997E-01-0.964E-01

 reached required accuracy - stopping structural energy minimisation

 total charge

[...]

 magnetization (x)

# of ion       s       p       d       tot
    1       -0.000  -0.000   0.000  -0.000
    2       -0.000  -0.000   0.000  -0.000
    3        0.000   0.000   0.000   0.000
tot          0.000   0.000   0.000   0.000