 vasp.6.3.2 27Jun22 (build Mar 25 2024 10:42:18) complex
 executed on             LinuxGNU date 2024.03.29  15:54:14

 INCAR:
   ISTART = 0
   ICHARG = 2
   PREC = Accurate
   IBRION = -1
   EDIFF = 0.000000001
   EDIFFG = -0.0005
   NSW = 0
   NELM = 100
   ENCUT = 520
   ISMEAR = -5
   SIGMA = 0.05
   ISPIN = 2
   ISYM = 0
   LWAVE = False
   LCHARG = False
   LASPH = True
   LORBIT = 11
   ADDGRID = TRUE

 POTCAR:    PAW_PBE Na_pv 19Sep2006
 POTCAR:    PAW_PBE S 06Sep2000
|           W    W    AA    RRRRR   N    N  II  N    N   GGGG   !!!           |
|           W    W   A  A   R    R  NN   N  II  NN   N  G    G  !!!           |
|           W    W  A    A  R    R  N N  N  II  N N  N  G       !!!           |
|           W WW W  AAAAAA  RRRRR   N  N N  II  N  N N  G  GGG   !            |
|           WW  WW  A    A  R   R   N   NN  II  N   NN  G    G                |
|           W    W  A    A  R    R  N    N  II  N    N   GGGG   !!!           |
|     You use a magnetic or noncollinear calculation, but did not specify     |
|     the initial magnetic moment with the MAGMOM tag. Note that a            |
|     default of 1 will be used for all atoms. This ferromagnetic setup       |
|     may break the symmetry of the crystal, in particular it may rule        |
|     out finding an antiferromagnetic solution. Thence, we recommend         |
|     setting the initial magnetic moment manually or verifying carefully     |
|     that this magnetic setup is desired.                                    |

   TITEL  = PAW_PBE Na_pv 19Sep2006
   POMASS =   22.990; ZVAL   =    7.000    mass and valenz
   ENMAX  =  259.561; ENMIN  =  194.671 eV

   TITEL  = PAW_PBE S 06Sep2000
   POMASS =   32.066; ZVAL   =    6.000    mass and valenz
   ENMAX  =  258.689; ENMIN  =  194.016 eV

  PAW_PBE Na_pv 19Sep2006               :
  PAW_PBE S 06Sep2000                   :

 POSCAR: generated by phonopy
  positions in direct lattice
 exchange correlation table for  LEXCH =        8
   RHO(1)=    0.500       N(1)  =     2000
   RHO(2)=  100.500       N(2)  =     4000

 ion  position               nearest neighbor table
   1  0.000  0.000  0.000-
   2  0.333  0.000  0.000-
   3  0.667  0.000  0.000-
   4  0.000  0.333  0.000-
   5  0.333  0.333  0.000-
   6  0.667  0.333  0.000-
   7  0.000  0.667  0.000-
   8  0.333  0.667  0.000-
   9  0.667  0.667  0.000-
  10  0.000  0.000  0.500-
  11  0.333  0.000  0.500-
  12  0.667  0.000  0.500-
  13  0.000  0.333  0.500-
  14  0.333  0.333  0.500-
  15  0.667  0.333  0.500-
  16  0.000  0.667  0.500-
  17  0.333  0.667  0.500-
  18  0.667  0.667  0.500-
  19  0.111  0.222  0.250-
  20  0.444  0.222  0.250-
  21  0.778  0.222  0.250-
  22  0.111  0.556  0.250-
  23  0.444  0.556  0.250-
  24  0.778  0.556  0.250-
  25  0.111  0.889  0.250-
  26  0.444  0.889  0.250-
  27  0.778  0.889  0.250-
  28  0.222  0.111  0.750-
  29  0.556  0.111  0.750-
  30  0.889  0.111  0.750-
  31  0.222  0.444  0.750-
  32  0.556  0.444  0.750-
  33  0.889  0.444  0.750-
  34  0.222  0.778  0.750-
  35  0.556  0.778  0.750-
  36  0.889  0.778  0.750-
  37  0.111  0.222  0.644-  64 2.18
  38  0.444  0.222  0.645-  65 2.17
  39  0.778  0.222  0.645-  66 2.17
  40  0.111  0.556  0.645-  67 2.17
  41  0.444  0.556  0.645-  68 2.17
  42  0.778  0.556  0.645-  69 2.17
  43  0.111  0.889  0.645-  70 2.17
  44  0.444  0.889  0.645-  71 2.17
  45  0.778  0.889  0.645-  72 2.17
  46  0.222  0.111  0.145-  55 2.17
  47  0.556  0.111  0.145-  56 2.17
  48  0.889  0.111  0.145-  57 2.17
  49  0.222  0.444  0.145-  58 2.17
  50  0.556  0.444  0.145-  59 2.17
  51  0.889  0.444  0.145-  60 2.17
  52  0.222  0.778  0.145-  61 2.17
  53  0.556  0.778  0.145-  62 2.17
  54  0.889  0.778  0.145-  63 2.17
  55  0.222  0.111  0.355-  46 2.17
  56  0.556  0.111  0.355-  47 2.17
  57  0.889  0.111  0.355-  48 2.17
  58  0.222  0.444  0.355-  49 2.17
  59  0.556  0.444  0.355-  50 2.17
  60  0.889  0.444  0.355-  51 2.17
  61  0.222  0.778  0.355-  52 2.17
  62  0.556  0.778  0.355-  53 2.17
  63  0.889  0.778  0.355-  54 2.17
  64  0.111  0.222  0.855-  37 2.18
  65  0.444  0.222  0.855-  38 2.17
  66  0.778  0.222  0.855-  39 2.17
  67  0.111  0.556  0.855-  40 2.17
  68  0.444  0.556  0.855-  41 2.17
  69  0.778  0.556  0.855-  42 2.17
  70  0.111  0.889  0.855-  43 2.17
  71  0.444  0.889  0.855-  44 2.17
  72  0.778  0.889  0.855-  45 2.17

IMPORTANT INFORMATION: All symmetrisations will be switched off!
NOSYMM: (Re-)initialisation of all symmetry stuff for point group C_1.

                                     Primitive cell

  volume of cell :    1632.5578

  direct lattice vectors                    reciprocal lattice vectors
     6.766693413-11.720256790  0.000000000     0.073891334 -0.042661181  0.000000000
     6.766693413 11.720256790  0.000000000     0.073891334  0.042661181 -0.000000000
     0.000000000  0.000000000 10.292596541    -0.000000000  0.000000000  0.097157214

  length of vectors
    13.533386826 13.533386826 10.292596541     0.085322363  0.085322363  0.097157214

  position of ions in fractional coordinates (direct lattice)
     0.000000000  0.000000000  0.000000000
     0.333333333  0.000000000  0.000000000
     0.666666667  0.000000000  0.000000000
     0.000000000  0.333333333  0.000000000
     0.333333333  0.333333333  0.000000000
     0.666666667  0.333333333  0.000000000
     0.000000000  0.666666667  0.000000000
     0.333333333  0.666666667  0.000000000
     0.666666667  0.666666667  0.000000000
     0.000000000  0.000000000  0.500000000
     0.333333333  0.000000000  0.500000000
     0.666666667  0.000000000  0.500000000
     0.000000000  0.333333333  0.500000000
     0.333333333  0.333333333  0.500000000
     0.666666667  0.333333333  0.500000000
     0.000000000  0.666666667  0.500000000
     0.333333333  0.666666667  0.500000000
     0.666666667  0.666666667  0.500000000
     0.111111111  0.222222222  0.250000000
     0.444444444  0.222222222  0.250000000
     0.777777778  0.222222222  0.250000000
     0.111111111  0.555555556  0.250000000
     0.444444444  0.555555556  0.250000000
     0.777777778  0.555555556  0.250000000
     0.111111111  0.888888889  0.250000000
     0.444444444  0.888888889  0.250000000
     0.777777778  0.888888889  0.250000000
     0.222222222  0.111111111  0.750000000
     0.555555556  0.111111111  0.750000000
     0.888888889  0.111111111  0.750000000
     0.222222222  0.444444444  0.750000000
     0.555555556  0.444444444  0.750000000
     0.888888889  0.444444444  0.750000000
     0.222222222  0.777777778  0.750000000
     0.555555556  0.777777778  0.750000000
     0.888888889  0.777777778  0.750000000
     0.110522967  0.222222222  0.644026962
     0.444444444  0.222222222  0.644615105
     0.777777778  0.222222222  0.644615105
     0.111111111  0.555555556  0.644615105
     0.444444444  0.555555556  0.644615105
     0.777777778  0.555555556  0.644615105
     0.111111111  0.888888889  0.644615105
     0.444444444  0.888888889  0.644615105
     0.777777778  0.888888889  0.644615105
     0.222222222  0.111111111  0.144615105
     0.555555556  0.111111111  0.144615105
     0.888888889  0.111111111  0.144615105
     0.222222222  0.444444444  0.144615105
     0.555555556  0.444444444  0.144615105
     0.888888889  0.444444444  0.144615105
     0.222222222  0.777777778  0.144615105
     0.555555556  0.777777778  0.144615105
     0.888888889  0.777777778  0.144615105
     0.222222222  0.111111111  0.355384895
     0.555555556  0.111111111  0.355384895
     0.888888889  0.111111111  0.355384895
     0.222222222  0.444444444  0.355384895
     0.555555556  0.444444444  0.355384895
     0.888888889  0.444444444  0.355384895
     0.222222222  0.777777778  0.355384895
     0.555555556  0.777777778  0.355384895
     0.888888889  0.777777778  0.355384895
     0.111111111  0.222222222  0.855384895
     0.444444444  0.222222222  0.855384895
     0.777777778  0.222222222  0.855384895
     0.111111111  0.555555556  0.855384895
     0.444444444  0.555555556  0.855384895
     0.777777778  0.555555556  0.855384895
     0.111111111  0.888888889  0.855384895
     0.444444444  0.888888889  0.855384895
     0.777777778  0.888888889  0.855384895

  ion indices of the primitive-cell ions
   primitive index   ion index
                 1           1
                 2           2
                 3           3
                 4           4
                 5           5
                 6           6
                 7           7
                 8           8
                 9           9
                10          10
                11          11
                12          12
                13          13
                14          14
                15          15
                16          16
                17          17
                18          18
                19          19
                20          20
                21          21
                22          22
                23          23
                24          24
                25          25
                26          26
                27          27
                28          28
                29          29
                30          30
                31          31
                32          32
                33          33
                34          34
                35          35
                36          36
                37          37
                38          38
                39          39
                40          40
                41          41
                42          42
                43          43
                44          44
                45          45
                46          46
                47          47
                48          48
                49          49
                50          50
                51          51
                52          52
                53          53
                54          54
                55          55
                56          56
                57          57
                58          58
                59          59
                60          60
                61          61
                62          62
                63          63
                64          64
                65          65
                66          66
                67          67
                68          68
                69          69
                70          70
                71          71
                72          72

 KPOINTS: pymatgen with grid density = 727 / numbe

Automatic generation of k-mesh.
 Grid dimensions read from file:
 generate k-points for:    3    3    2

 Generating k-lattice:

  Cartesian coordinates                     Fractional coordinates (reciprocal lattice)
     0.024630445 -0.014220394  0.000000000     0.333333333  0.000000000  0.000000000
     0.024630445  0.014220394 -0.000000000     0.000000000  0.333333333  0.000000000
    -0.000000000  0.000000000  0.048578607     0.000000000  0.000000000  0.500000000

  Length of vectors
     0.028440788  0.028440788  0.048578607

  Shift w.r.t. Gamma in fractional coordinates (k-lattice)
[...]
   0.994E-02 -.168E-01 0.294E-02   -.910E-02 0.158E-01 -.261E-02   -.703E-03 0.859E-03 -.316E-03   -.938E-06 0.222E-05 -.120E-06
   0.226E-01 -.381E-01 0.363E-01   -.217E-01 0.376E-01 -.359E-01   -.729E-03 0.455E-03 -.304E-03   -.134E-05 0.673E-06 0.183E-08
   -.291E-01 -.153E-01 0.280E-01   0.283E-01 0.160E-01 -.275E-01   0.722E-03 -.607E-03 -.413E-03   0.156E-05 -.986E-06 -.783E-07
   0.302E-02 0.168E-01 0.111E-01   -.280E-02 -.164E-01 -.109E-01   -.157E-03 -.347E-03 -.207E-03   -.798E-06 -.184E-05 -.161E-06
   0.791E-02 -.138E-01 0.614E-02   -.728E-02 0.127E-01 -.595E-02   -.540E-03 0.943E-03 -.168E-03   -.132E-05 0.242E-05 -.242E-06
   -.171E-01 0.517E-02 0.114E-01   0.156E-01 -.579E-02 -.109E-01   0.126E-02 0.544E-03 -.417E-03   0.225E-05 0.116E-05 -.175E-06
   0.737E-02 -.127E-01 0.600E-02   -.734E-02 0.126E-01 -.595E-02   -.195E-04 0.348E-04 -.391E-04   -.258E-06 0.773E-06 -.265E-06
   0.289E-01 0.167E-01 0.278E-01   -.280E-01 -.165E-01 -.275E-01   -.761E-03 -.231E-03 -.200E-03   -.692E-06 -.123E-05 -.746E-07
   -.106E+00 -.479E+00 0.144E+00   0.102E+00 0.467E+00 -.118E+00   0.424E-02 0.194E-01 -.277E-01   0.122E-05 -.128E-05 -.756E-08
   0.299E-01 -.531E-01 -.809E-02   -.270E-01 0.488E-01 0.795E-02   -.253E-02 0.377E-02 0.127E-03   -.155E-05 0.402E-05 0.205E-06
   0.177E+00 0.228E-01 -.293E+00   -.160E+00 -.269E-01 0.273E+00   -.197E-01 0.634E-02 0.208E-01   0.154E-05 -.200E-05 -.175E-06
   0.399E-01 0.271E+00 -.735E-01   -.468E-01 -.264E+00 0.761E-01   0.451E-02 -.731E-02 -.355E-02   0.447E-06 -.233E-05 -.225E-07
   0.709E-01 -.296E-01 0.423E-03   -.686E-01 0.297E-01 0.200E-03   -.188E-02 -.100E-03 -.516E-03   -.240E-05 -.106E-06 0.218E-06
   -.993E-02 -.531E-01 -.279E-01   0.874E-02 0.509E-01 0.271E-01   0.103E-02 0.180E-02 0.698E-03   0.717E-06 0.180E-05 0.143E-06
   -.208E-01 -.232E-01 -.709E-02   0.192E-01 0.211E-01 0.673E-02   0.135E-02 0.184E-02 0.332E-03   0.839E-06 0.226E-05 0.289E-06
   0.305E-01 0.790E-02 -.903E-02   -.279E-01 -.827E-02 0.913E-02   -.227E-02 0.338E-03 -.942E-04   -.198E-05 -.348E-06 0.277E-06
   -.200E-01 0.112E-01 -.137E-01   0.189E-01 -.908E-02 0.136E-01   0.932E-03 -.184E-02 0.896E-04   0.122E-05 -.175E-05 0.222E-06
   -.322E+00 0.555E+00 0.628E+02   0.305E+00 -.525E+00 -.702E+02   0.285E-01 -.492E-01 0.745E+01   0.740E-06 -.153E-05 0.200E-05
   0.545E-01 -.940E-01 0.637E+02   -.522E-01 0.904E-01 -.711E+02   -.351E-02 0.579E-02 0.742E+01   -.615E-06 0.107E-05 0.280E-05
   0.549E-01 -.948E-01 0.637E+02   -.524E-01 0.907E-01 -.711E+02   -.397E-02 0.642E-02 0.742E+01   -.228E-06 0.527E-06 0.220E-05
   -.565E-01 -.305E-01 0.637E+02   0.545E-01 0.288E-01 -.711E+02   0.314E-02 0.271E-02 0.742E+01   0.569E-06 -.132E-06 0.216E-05
   0.543E-01 0.332E-01 0.637E+02   -.524E-01 -.326E-01 -.711E+02   -.317E-02 -.986E-03 0.742E+01   -.813E-06 -.983E-06 0.283E-05
   0.103E-01 -.180E-01 0.637E+02   -.101E-01 0.176E-01 -.712E+02   -.324E-03 0.569E-03 0.742E+01   -.543E-06 0.687E-06 0.272E-05
   -.562E-01 -.304E-01 0.637E+02   0.544E-01 0.291E-01 -.711E+02   0.277E-02 0.215E-02 0.742E+01   0.106E-05 0.295E-06 0.280E-05
   0.103E-01 -.178E-01 0.637E+02   -.102E-01 0.175E-01 -.712E+02   -.229E-03 0.396E-03 0.742E+01   -.343E-06 0.855E-06 0.265E-05
   0.548E-01 0.334E-01 0.637E+02   -.522E-01 -.328E-01 -.711E+02   -.398E-02 -.952E-03 0.742E+01   0.717E-08 -.795E-06 0.232E-05
   -.158E-01 -.122E-02 0.638E+02   0.151E-01 -.366E-02 -.712E+02   0.829E-03 0.454E-02 0.742E+01   0.649E-06 -.512E-06 0.280E-05
   0.132E-01 -.228E-01 0.638E+02   -.127E-01 0.220E-01 -.712E+02   -.621E-03 0.994E-03 0.742E+01   -.698E-06 0.158E-05 0.248E-05
   0.521E-02 0.153E-01 0.638E+02   -.442E-02 -.150E-01 -.712E+02   -.110E-02 -.320E-03 0.742E+01   0.237E-06 -.960E-06 0.286E-05
   -.140E-01 0.285E-01 0.638E+02   0.152E-01 -.262E-01 -.712E+02   -.780E-03 -.236E-02 0.742E+01   0.495E-06 -.126E-05 0.262E-05
   0.178E-01 -.648E-02 0.638E+02   -.172E-01 0.639E-02 -.712E+02   -.736E-03 0.146E-03 0.742E+01   -.100E-05 0.250E-06 0.247E-05
   -.334E-02 -.185E-01 0.638E+02   0.313E-02 0.181E-01 -.712E+02   0.240E-03 0.420E-03 0.742E+01   0.124E-06 0.769E-06 0.229E-05
   -.996E-02 -.948E-02 0.638E+02   0.968E-02 0.908E-02 -.712E+02   0.359E-03 0.470E-03 0.742E+01   0.686E-06 0.795E-06 0.256E-05
   0.132E-01 0.384E-02 0.638E+02   -.127E-01 -.385E-02 -.712E+02   -.585E-03 0.116E-05 0.742E+01   -.788E-06 -.403E-06 0.241E-05
   -.342E-02 0.568E-02 0.638E+02   0.312E-02 -.538E-02 -.712E+02   0.366E-03 -.345E-03 0.742E+01   0.341E-06 -.254E-06 0.240E-05
   -.322E-01 0.505E-01 -.638E+02   0.314E-01 -.459E-01 0.712E+02   0.939E-03 -.471E-02 -.742E+01   0.647E-06 -.235E-06 -.280E-05
   0.188E-01 -.299E-01 -.637E+02   -.182E-01 0.290E-01 0.712E+02   -.638E-03 0.104E-02 -.742E+01   -.678E-06 0.156E-05 -.280E-05
   0.988E-01 -.196E-01 -.636E+02   -.961E-01 0.190E-01 0.710E+02   -.245E-02 0.350E-03 -.742E+01   0.482E-06 -.104E-05 -.229E-05
   -.955E-01 0.195E-01 -.637E+02   0.915E-01 -.199E-01 0.711E+02   0.400E-02 0.165E-03 -.742E+01   0.229E-06 -.136E-05 -.243E-05
   0.185E-01 -.501E-02 -.638E+02   -.178E-01 0.490E-02 0.712E+02   -.779E-03 0.148E-03 -.742E+01   -.103E-05 0.292E-06 -.275E-05
   -.498E-02 -.435E-01 -.637E+02   0.474E-02 0.426E-01 0.711E+02   0.261E-03 0.108E-02 -.742E+01   0.968E-07 0.612E-06 -.249E-05
   -.141E-01 -.122E-01 -.637E+02   0.138E-01 0.118E-01 0.712E+02   0.371E-03 0.493E-03 -.742E+01   0.627E-06 0.792E-06 -.285E-05
   0.177E-01 0.354E-02 -.637E+02   -.171E-01 -.352E-02 0.712E+02   -.609E-03 -.181E-04 -.742E+01   -.761E-06 -.472E-06 -.287E-05
   0.584E-02 0.148E-01 -.637E+02   -.596E-02 -.143E-01 0.712E+02   0.120E-03 -.534E-03 -.742E+01   0.476E-06 -.147E-06 -.278E-05
   -.189E+00 0.327E+00 -.632E+02   0.198E+00 -.343E+00 0.705E+02   -.983E-02 0.171E-01 -.744E+01   0.890E-06 -.169E-05 -.270E-05
   0.431E-01 -.745E-01 -.637E+02   -.426E-01 0.738E-01 0.711E+02   -.537E-03 0.661E-03 -.742E+01   -.560E-06 0.105E-05 -.261E-05
   0.186E-01 -.320E-01 -.638E+02   -.183E-01 0.317E-01 0.712E+02   -.328E-03 0.391E-03 -.742E+01   -.279E-06 0.698E-06 -.210E-05
   -.237E-01 0.675E-02 -.638E+02   0.233E-01 -.645E-02 0.712E+02   0.539E-03 -.251E-03 -.742E+01   0.673E-06 -.645E-07 -.204E-05
   0.553E-01 0.236E-01 -.637E+02   -.548E-01 -.233E-01 0.712E+02   -.379E-03 -.369E-03 -.742E+01   -.698E-06 -.995E-06 -.244E-05
   0.858E-02 -.149E-01 -.638E+02   -.838E-02 0.146E-01 0.712E+02   -.258E-03 0.451E-03 -.742E+01   -.546E-06 0.698E-06 -.222E-05
   -.484E-01 -.362E-01 -.637E+02   0.476E-01 0.359E-01 0.712E+02   0.845E-03 0.232E-03 -.742E+01   0.109E-05 0.238E-06 -.246E-05
   0.856E-02 -.147E-01 -.638E+02   -.844E-02 0.145E-01 0.712E+02   -.168E-03 0.291E-03 -.742E+01   -.392E-06 0.843E-06 -.212E-05
   0.621E-02 0.237E-01 -.638E+02   -.606E-02 -.234E-01 0.712E+02   -.288E-03 -.392E-03 -.742E+01   -.171E-06 -.828E-06 -.222E-05
   0.177E-01 -.307E-01 0.207E-01   -.362E-13 -.289E-13 0.128E-12   -.177E-01 0.306E-01 -.207E-01   0.199E-07 0.167E-06 0.502E-06

 POSITION                                       TOTAL-FORCE (eV/Angst)
      0.00000      0.00000      0.00000        -0.000689      0.000198     -0.000118
      2.25556     -3.90675      0.00000        -0.000048     -0.000263      0.000003
      4.51113     -7.81350      0.00000         0.000189     -0.000052     -0.000178
      2.25556      3.90675      0.00000        -0.000257      0.000045     -0.000251
      4.51113      0.00000      0.00000         0.000955     -0.000252      0.000014
      6.76669     -3.90675      0.00000         0.000171     -0.000292     -0.000038
      4.51113      7.81350      0.00000        -0.000120     -0.000127      0.000006
      6.76669      3.90675      0.00000        -0.000018      0.000102     -0.000087
      9.02226     -0.00000      0.00000         0.000169      0.000035     -0.000081
      0.00000      0.00000      5.14630        -0.001225      0.000278     -0.000533
      2.25556     -3.90675      5.14630        -0.000097     -0.000356     -0.000151
      4.51113     -7.81350      5.14630         0.000335     -0.000080      0.000301
      2.25556      3.90675      5.14630        -0.000420      0.003839     -0.000458
      4.51113      0.00000      5.14630        -0.001423      0.001322     -0.000660
      6.76669     -3.90675      5.14630         0.000255     -0.000433      0.000038
      4.51113      7.81350      5.14630        -0.000158     -0.000199     -0.000017
      6.76669      3.90675      5.14630        -0.000087      0.000176      0.000074
      9.02226     -0.00000      5.14630         0.000251      0.000027      0.000092
      2.25556      1.30225      2.57315        -0.000170      0.000300      0.000499
      4.51113     -2.60450      2.57315         0.000136     -0.000148      0.000023
      6.76669     -6.51125      2.57315         0.000139     -0.000065      0.000056
      4.51113      5.20900      2.57315        -0.000141      0.000093      0.000065
      6.76669      1.30225      2.57315         0.000060      0.000043      0.000014
      9.02226     -2.60450      2.57315         0.000080     -0.000136      0.000018
      6.76669      9.11576      2.57315        -0.000212     -0.000073      0.000048
      9.02226      5.20900      2.57315         0.000010     -0.000015      0.000008
     11.27782      1.30225      2.57315         0.000102      0.000020      0.000031
      2.25556     -1.30225      7.71945        -0.000412      0.008056     -0.002450
      4.51113     -5.20900      7.71945         0.000336     -0.000528     -0.000012
      6.76669     -9.11576      7.71945        -0.003093      0.002241      0.000641
      4.51113      2.60450      7.71945        -0.002338     -0.000419     -0.000956
      6.76669     -1.30225      7.71945         0.000388     -0.000041      0.000107
      9.02226     -5.20900      7.71945        -0.000163     -0.000430     -0.000143
      6.76669      6.51125      7.71945        -0.000173     -0.000263     -0.000027
      9.02226      2.60450      7.71945         0.000311     -0.000038      0.000004
     11.27782     -1.30225      7.71945        -0.000132      0.000295     -0.000018
      2.25158      1.30914      6.62871         0.011162     -0.019244      0.070621
      4.51113     -2.60450      6.63476        -0.001247      0.002190      0.003464
      6.76669     -6.51125      6.63476        -0.001394      0.002323      0.003690
      4.51113      5.20900      6.63476         0.001097      0.001006      0.003650
      6.76669      1.30225      6.63476        -0.001247     -0.000412      0.003502
      9.02226     -2.60450      6.63476        -0.000075      0.000132      0.003367
      6.76669      9.11576      6.63476         0.000958      0.000830      0.003537
      9.02226      5.20900      6.63476        -0.000076      0.000132      0.003367
     11.27782      1.30225      6.63476        -0.001366     -0.000385      0.003615
      2.25556     -1.30225      1.48846         0.000145     -0.000343      0.002820
      4.51113     -5.20900      1.48846        -0.000115      0.000173      0.003377
      6.76669     -9.11576      1.48846        -0.000313      0.000013      0.003530
      4.51113      2.60450      1.48846         0.000416     -0.000095      0.003173
      6.76669     -1.30225      1.48846        -0.000152      0.000050      0.003374
      9.02226     -5.20900      1.48846         0.000032      0.000079      0.003286
      6.76669      6.51125      1.48846         0.000080      0.000073      0.003363
      9.02226      2.60450      1.48846        -0.000104     -0.000010      0.003391
     11.27782     -1.30225      1.48846         0.000065     -0.000037      0.003330
      2.25556     -1.30225      3.65783         0.000112     -0.000041     -0.004765
      4.51113     -5.20900      3.65783        -0.000065      0.000084     -0.003376
      6.76669     -9.11576      3.65783         0.000259     -0.000278     -0.004385
      4.51113      2.60450      3.65783        -0.000030     -0.000275     -0.004580
      6.76669     -1.30225      3.65783        -0.000122      0.000043     -0.003344
      9.02226     -5.20900      3.65783         0.000023      0.000179     -0.003404
      6.76669      6.51125      3.65783         0.000052      0.000031     -0.003361
      9.02226      2.60450      3.65783        -0.000053     -0.000004     -0.003391
     11.27782     -1.30225      3.65783         0.000000     -0.000054     -0.003374
      2.25556      1.30225      8.80413        -0.000510      0.000894     -0.063345
      4.51113     -2.60450      8.80413        -0.000013     -0.000051     -0.003257
      6.76669     -6.51125      8.80413        -0.000057      0.000138     -0.003500
      4.51113      5.20900      8.80413         0.000116      0.000045     -0.003449
      6.76669      1.30225      8.80413         0.000091     -0.000059     -0.003306
      9.02226     -2.60450      8.80413        -0.000054      0.000095     -0.003364
      6.76669      9.11576      8.80413         0.000072     -0.000088     -0.003327
      9.02226      5.20900      8.80413        -0.000054      0.000095     -0.003363
     11.27782      1.30225      8.80413        -0.000145     -0.000087     -0.003428
    total drift:                                0.000004     -0.000007      0.000006

  FREE ENERGIE OF THE ION-ELECTRON SYSTEM (eV)
  free  energy   TOTEN  =      -256.10272029 eV

  energy  without entropy=     -256.10272029  energy(sigma->0) =     -256.10272029

 total charge

[...]

 magnetization (x)

# of ion       s       p       d       tot
    1       -0.000  -0.000   0.000  -0.000
    2       -0.000  -0.000   0.000  -0.000
    3       -0.000   0.000   0.000   0.000
    4       -0.000   0.000   0.000   0.000
    5       -0.000  -0.000   0.000  -0.000
    6       -0.000  -0.000   0.000  -0.000
    7       -0.000  -0.000   0.000  -0.000
    8       -0.000  -0.000   0.000  -0.000
    9       -0.000  -0.000   0.000  -0.000
   10       -0.000  -0.000   0.000  -0.000
   11       -0.000  -0.000   0.000  -0.000
   12       -0.000  -0.000   0.000  -0.000
   13       -0.000  -0.000   0.000  -0.000
   14       -0.000  -0.000   0.000  -0.000
   15       -0.000  -0.000   0.000  -0.000
   16       -0.000  -0.000   0.000  -0.000
   17       -0.000  -0.000   0.000  -0.000
   18       -0.000  -0.000   0.000  -0.000
   19       -0.000  -0.000   0.000  -0.000
   20       -0.000  -0.000   0.000  -0.000
   21       -0.000  -0.000   0.000  -0.000
   22       -0.000  -0.000   0.000  -0.000
   23       -0.000  -0.000   0.000  -0.000
   24       -0.000  -0.000   0.000  -0.000
   25       -0.000  -0.000   0.000  -0.000
   26       -0.000  -0.000   0.000  -0.000
   27       -0.000  -0.000   0.000  -0.000
   28       -0.000  -0.000   0.000  -0.000
   29       -0.000  -0.000   0.000  -0.000
   30       -0.000  -0.000   0.000  -0.000
   31       -0.000  -0.000   0.000  -0.000
   32       -0.000  -0.000   0.000  -0.000
   33       -0.000  -0.000   0.000  -0.000
   34       -0.000  -0.000   0.000  -0.000
   35       -0.000  -0.000   0.000  -0.000
   36       -0.000  -0.000   0.000  -0.000
   37        0.000   0.000   0.000   0.000
   38        0.000   0.000   0.000   0.000
   39        0.000   0.000   0.000   0.000
   40        0.000   0.000   0.000   0.000
   41        0.000   0.000   0.000   0.000
   42        0.000   0.000   0.000   0.000
   43        0.000   0.000   0.000   0.000
   44        0.000   0.000   0.000   0.000
   45        0.000   0.000   0.000   0.000
   46        0.000   0.000   0.000   0.000
   47        0.000   0.000   0.000   0.000
   48        0.000   0.000   0.000   0.000
   49        0.000   0.000   0.000   0.000
   50        0.000   0.000   0.000   0.000
   51        0.000   0.000   0.000   0.000
   52        0.000   0.000   0.000   0.000
   53        0.000   0.000   0.000   0.000
   54        0.000   0.000   0.000   0.000
   55        0.000   0.000   0.000   0.000
   56        0.000   0.000   0.000   0.000
   57        0.000   0.000   0.000   0.000
   58        0.000   0.000   0.000   0.000
   59        0.000   0.000   0.000   0.000
   60        0.000   0.000   0.000   0.000
   61        0.000   0.000   0.000   0.000
   62        0.000   0.000   0.000   0.000
   63        0.000   0.000   0.000   0.000
   64        0.000   0.000   0.000   0.000
   65        0.000   0.000   0.000   0.000
   66        0.000   0.000   0.000   0.000
   67        0.000   0.000   0.000   0.000
   68        0.000   0.000   0.000   0.000
   69        0.000   0.000   0.000   0.000
   70        0.000   0.000   0.000   0.000
   71        0.000   0.000   0.000   0.000
   72        0.000   0.000   0.000   0.000
tot          0.000   0.000   0.000   0.000

 BZINTS: Fermi energy:    1.850759;  468.000000 electrons
         Band energy:-0.542021E+04;  BLOECHL correction:    0.000000