 vasp.6.3.2 27Jun22 (build Mar 25 2024 10:42:18) complex
 executed on             LinuxGNU date 2024.05.15  13:47:33

 INCAR:
   ALGO = All
   EDIFF = 1e-08
   EDIFFG = -0.001
   ENAUG = 1360
   ENCUT = 680
   IBRION = 2
   ISIF = 3
   ISMEAR = 2
   ISPIN = 2
   KSPACING = 0.22
   LAECHG = True
   LASPH = True
   LCHARG = True
   LELF = False
   LMIXTAU = True
   LORBIT = 11
   LREAL = Auto
   LVTOT = True
   LWAVE = False
   MAGMOM = 8*0.0
   METAGGA = R2scan
   NELM = 200
   NSW = 99
   PREC = Accurate
   SIGMA = 0.2

 POTCAR:    PAW_PBE Na_pv 19Sep2006
 POTCAR:    PAW_PBE S 06Sep2000
 WARNING: For LVTOT=.TRUE., VASP.5.x writes the TOTAL local potential to the
     file LOCPOT. If you want only the Hartree contributions, use LVHAR=.TRUE.
     instead.

   TITEL  = PAW_PBE Na_pv 19Sep2006
   POMASS =   22.990; ZVAL   =    7.000    mass and valenz
   ENMAX  =  259.561; ENMIN  =  194.671 eV

   TITEL  = PAW_PBE S 06Sep2000
   POMASS =   32.066; ZVAL   =    6.000    mass and valenz
   ENMAX  =  258.689; ENMIN  =  194.016 eV

 Optimization of the real space projectors (new method)

 maximal supplied QI-value         = 17.01
 optimisation between [QCUT,QGAM] = [ 13.27, 26.70] = [ 49.28,199.66] Ry
 Optimized for a Real-space Cutoff    1.38 Angstroem

   l    n(q)    QCUT    max X(q) W(low)/X(q) W(high)/X(q)  e(spline)
   1     11    13.266     4.940    0.11E-03    0.62E-04    0.24E-06
   1     11    13.266     6.253    0.16E-03    0.89E-04    0.35E-06
   0     11    13.266    37.438    0.39E-04    0.39E-05    0.18E-06
   0     11    13.266     9.606    0.17E-04    0.30E-05    0.12E-06
 Optimization of the real space projectors (new method)

 maximal supplied QI-value         = 19.84
 optimisation between [QCUT,QGAM] = [ 13.29, 26.59] = [ 49.49,197.96] Ry
 Optimized for a Real-space Cutoff    1.16 Angstroem

   l    n(q)    QCUT    max X(q) W(low)/X(q) W(high)/X(q)  e(spline)
   0      9    13.294   187.594    0.14E-03    0.96E-04    0.62E-07
   0      9    13.294   164.243    0.14E-03    0.95E-04    0.61E-07
   1      9    13.294    67.533    0.58E-04    0.17E-03    0.14E-06
   1      9    13.294    50.729    0.57E-04    0.16E-03    0.13E-06
  PAW_PBE Na_pv 19Sep2006               :
  PAW_PBE S 06Sep2000                   :

 POSCAR: Na4 S4
  positions in direct lattice

 METAGGA = R2SCA    LMAXTAU =  6    LMIXTAU =  T

 ion  position               nearest neighbor table
   1  0.000  0.000  0.000-
   2  0.000  0.000  0.500-
   3  0.333  0.667  0.250-   6 2.79   7 2.79   6 2.79   7 2.79   6 2.79   7 2.79
   4  0.667  0.333  0.750-   5 2.79   8 2.79   5 2.79   8 2.79   5 2.79   8 2.79
   5  0.333  0.667  0.644-   8 2.15   4 2.79   4 2.79   4 2.79
   6  0.667  0.333  0.144-   7 2.15   3 2.79   3 2.79   3 2.79
   7  0.667  0.333  0.356-   6 2.15   3 2.79   3 2.79   3 2.79
   8  0.333  0.667  0.856-   5 2.15   4 2.79   4 2.79   4 2.79

  LATTYP: Found a hexagonal cell.
 ALAT       =     4.4515464000
 C/A-ratio  =     2.2859028898

  Lattice vectors:

 A1 = (   4.4515464000,   0.0000000000,   0.0000000000)
 A2 = (  -2.2257732000,   3.8551541600,   0.0000000000)
 A3 = (  -0.0000000000,   0.0000000000,  10.1758027800)

Analysis of symmetry for initial positions (statically):
 Subroutine PRICEL returns:
 Original cell was already a primitive cell.

 Routine SETGRP: Setting up the symmetry group for a
 hexagonal supercell.

 Subroutine GETGRP returns: Found 24 space group operations
 (whereof 12 operations were pure point group operations)
 out of a pool of 24 trial point group operations.

The static configuration has the point symmetry D_3d.
 The point group associated with its full space group is D_6h.

Analysis of symmetry for dynamics (positions and initial velocities):
 Subroutine PRICEL returns:
 Original cell was already a primitive cell.

[...]

The dynamic configuration has the point symmetry D_3d.
 The point group associated with its full space group is D_6h.

Analysis of structural, dynamic, and magnetic symmetry:
 Subroutine PRICEL returns:
 Original cell was already a primitive cell.

 Routine SETGRP: Setting up the symmetry group for a
 hexagonal supercell.

 Subroutine GETGRP returns: Found 24 space group operations
 (whereof 12 operations were pure point group operations)
 out of a pool of 24 trial point group operations.

The overall configuration has the point symmetry D_3d.
 The point group associated with its full space group is D_6h.

 Subroutine INISYM returns: Found 24 space group operations
 (whereof 12 operations are pure point group operations),
 and found     1 'primitive' translations

                                     Primitive cell

  volume of cell :     174.6310

  direct lattice vectors                    reciprocal lattice vectors
     4.451546400  0.000000000  0.000000000     0.224641037  0.129696500  0.000000000
    -2.225773200  3.855154160  0.000000000     0.000000000  0.259392999 -0.000000000
    -0.000000000  0.000000000 10.175802780     0.000000000 -0.000000000  0.098272345

  length of vectors
     4.451546400  4.451548038 10.175802780     0.259393095  0.259392999  0.098272345

  position of ions in fractional coordinates (direct lattice)
     0.000000000  0.000000000  0.000000000
     0.000000000  0.000000000  0.500000000
     0.333333000  0.666667000  0.250000000
     0.666667000  0.333333000  0.750000000
     0.333333000  0.666667000  0.644189120
     0.666667000  0.333333000  0.144189120
     0.666667000  0.333333000  0.355810880
     0.333333000  0.666667000  0.855810880

  ion indices of the primitive-cell ions
   primitive index   ion index
                 1           1
                 2           2
                 3           3
                 4           4
                 5           5
                 6           6
                 7           7
                 8           8

 KPOINTS: pymatgen with grid density = 727 / numbe

Automatic generation of k-mesh.
 Grid dimensions read from file:
 generate k-points for:    5    5    2

 Generating k-lattice:

  Cartesian coordinates                     Fractional coordinates (reciprocal lattice)
     0.044928207  0.025939300  0.000000000     0.200000000 -0.000000000  0.000000000
     0.000000000  0.051878600 -0.000000000     0.000000000  0.200000000  0.000000000
     0.000000000 -0.000000000  0.049136172     0.000000000  0.000000000  0.500000000

  Length of vectors
     0.051878619  0.051878600  0.049136172

  Shift w.r.t. Gamma in fractional coordinates (k-lattice)
     0.000000000  0.000000000  0.000000000

 Subroutine IBZKPT returns following result:

 Found     10 irreducible k-points:

 Following reciprocal coordinates:
            Coordinates               Weight
  0.000000  0.000000  0.000000      1.000000
  0.200000  0.000000  0.000000      6.000000
  0.400000  0.000000  0.000000      6.000000
  0.200000  0.200000  0.000000      6.000000
  0.400000  0.200000  0.000000      6.000000
  0.000000  0.000000  0.500000      1.000000
  0.200000  0.000000  0.500000      6.000000
  0.400000  0.000000  0.500000      6.000000
  0.200000  0.200000  0.500000      6.000000
  0.400000  0.200000  0.500000      6.000000

 Following cartesian coordinates:
            Coordinates               Weight
  0.000000  0.000000  0.000000      1.000000
  0.044928  0.025939  0.000000      6.000000
  0.089856  0.051879  0.000000      6.000000
  0.044928  0.077818  0.000000      6.000000
  0.089856  0.103757  0.000000      6.000000
  0.000000  0.000000  0.049136      1.000000
  0.044928  0.025939  0.049136      6.000000
  0.089856  0.051879  0.049136      6.000000
  0.044928  0.077818  0.049136      6.000000
  0.089856  0.103757  0.049136      6.000000

 SYSTEM =  unknown system
 POSCAR =  Na4 S4

 Startparameter for this run:
   NWRITE =      2    write-flag & timer
   PREC   = accura    normal or accurate (medium, high low for compatibility)
   ISTART =      0    job   : 0-new  1-cont  2-samecut
   ICHARG =      2    charge: 1-file 2-atom 10-const
   ISPIN  =      2    spin polarized calculation?
   LNONCOLLINEAR =      F non collinear calculations
   LSORBIT =      F    spin-orbit coupling
   INIWAV =      1    electr: 0-lowe 1-rand  2-diag
   LASPH  =      T    aspherical Exc in radial PAW
 Electronic Relaxation 1
   ENCUT  =  680.0 eV  49.98 Ry    7.07 a.u.   9.47  9.47 21.64*2*pi/ulx,y,z
   ENINI  =  680.0     initial cutoff
   ENAUG  = 1360.0 eV  augmentation charge cutoff
   NELM   =    200;   NELMIN=  2; NELMDL= -5     # of ELM steps
   EDIFF  = 0.1E-07   stopping-criterion for ELM
   LREAL  =      T    real-space projection
   NLSPLINE    = F    spline interpolate recip. space projectors
   LCOMPAT=      F    compatible to vasp.4.4
   GGA_COMPAT  = T    GGA compatible to vasp.4.4-vasp.4.6
   LMAXPAW     = -100 max onsite density
   LMAXMIX     =    2 max onsite mixed and CHGCAR
   VOSKOWN=      0    Vosko Wilk Nusair interpolation
   ROPT   =   -0.00025  -0.00025
 Ionic relaxation
   EDIFFG = -.1E-02   stopping-criterion for IOM
   NSW    =     99    number of steps for IOM
   NBLOCK =      1;   KBLOCK =     99    inner block; outer block
   IBRION =      2    ionic relax: 0-MD 1-quasi-New 2-CG
   NFREE  =      1    steps in history (QN), initial steepest desc. (CG)
   ISIF   =      3    stress and relaxation
   IWAVPR =     11    prediction:  0-non 1-charg 2-wave 3-comb
   ISYM   =      2    0-nonsym 1-usesym 2-fastsym
   LCORR  =      T    Harris-Foulkes like correction to forces

   POTIM  = 0.5000    time-step for ionic-motion
   TEIN   =    0.0    initial temperature
   TEBEG  =    0.0;   TEEND  =   0.0 temperature during run
   SMASS  =  -3.00    Nose mass-parameter (am)
   estimated Nose-frequenzy (Omega)   =  0.10E-29 period in steps = 0.13E+47 mass=  -0.453E-27a.u.
   SCALEE = 1.0000    scale energy and forces
   NPACO  =    256;   APACO  = 10.0  distance and # of slots for P.C.
   PSTRESS=    0.0 pullay stress

  Mass of Ions in am
   POMASS =  22.99 32.07
  Ionic Valenz
   ZVAL   =   7.00  6.00
  Atomic Wigner-Seitz radii
  virtual crystal weights
   VCA    =   1.00  1.00
   NELECT =      52.0000    total number of electrons
   NUPDOWN=      -1.0000    fix difference up-down

 DOS related values:
   EMIN   =  10.00;   EMAX   =-10.00  energy-range for DOS
   EFERMI =   0.00
   ISMEAR =     2;   SIGMA  =   0.20  broadening in eV -4-tet -1-fermi 0-gaus

 Electronic relaxation 2 (details)
   IALGO  =     58    algorithm
   LDIAG  =      T    sub-space diagonalisation (order eigenvalues)
   LSUBROT=      F    optimize rotation matrix (better conditioning)
   TURBO    =      0    0=normal 1=particle mesh
   IRESTART =      0    0=no restart 2=restart with 2 vectors
   NREBOOT  =      0    no. of reboots
   NMIN     =      0    reboot dimension
   EREF     =   0.00    reference energy to select bands
   IMIX   =      4    mixing-type and parameters
     AMIX     =   0.40;   BMIX     =  1.00
     AMIX_MAG =   1.60;   BMIX_MAG =  1.00
     AMIN     =   0.10
     WC   =   100.;   INIMIX=   1;  MIXPRE=   1;  MAXMIX= -45

 Intra band minimization:
   WEIMIN = 0.0010     energy-eigenvalue tresh-hold
   EBREAK =  0.78E-10  absolut break condition
   DEPER  =   0.30     relativ break condition

[...]
 Fermi energy:         1.9200627050

[...]

 soft charge-density along one line, spin component           1
         0         1         2         3         4         5         6         7         8         9
 total charge-density along one line

[...]

------------------------ aborting loop because EDIFF is reached ----------------------------------------

 total charge

# of ion       s       p       d       tot
    1        0.042   5.981   0.000   6.023
    2        0.042   5.981   0.000   6.023
    3        0.046   5.992   0.000   6.038
    4        0.046   5.992   0.000   6.038
    5        1.326   2.381   0.000   3.707
    6        1.326   2.381   0.000   3.707
    7        1.326   2.381   0.000   3.707
    8        1.326   2.381   0.000   3.707
tot          5.479  33.472   0.000  38.951

 magnetization (x)

[...]

  FORCE on cell =-STRESS in cart. coord.  units (eV):
  Direction    XX          YY          ZZ          XY          YZ          ZX
  Alpha Z    81.84507    81.84507    81.84507
  Ewald    -822.76005  -822.75904  -793.92536     0.00113     0.00000     0.00000
  Hartree   370.44602   370.44639   320.86707     0.00028    -0.00000    -0.00000
  E(xc)    -249.66147  -249.49231  -250.20146    -0.24316    -0.00000    -0.00000
  Local    -233.85434  -233.85599  -144.41757    -0.00124    -0.00000    -0.00000
  n-local   199.87838   202.42764   182.49167    -4.08461     0.00000     0.00000
  augment   113.81256   113.81275   119.73521     0.00012    -0.00000     0.00000
  Kinetic   535.40311   542.16967   483.66548   -10.14215    -0.00000    -0.00000
  Fock        0.00000     0.00000     0.00000     0.00000     0.00000     0.00000
  Total      -0.14827    -0.14827     0.06010     0.00000     0.00000    -0.00000
  in kB      -1.36034    -1.36034     0.55138     0.00000     0.00000    -0.00000

 VOLUME and BASIS-vectors are now :
  energy-cutoff  :      680.00
  volume of cell :      174.63
      direct lattice vectors                 reciprocal lattice vectors
     4.451546400  0.000000000  0.000000000     0.224641037  0.129696500  0.000000000
    -2.225773200  3.855154160  0.000000000     0.000000000  0.259392999 -0.000000000
    -0.000000000  0.000000000 10.175802780     0.000000000 -0.000000000  0.098272345

[...]

 FORCES acting on ions:
    Electron-Ion                     Ewald-Force                    Non-Local-Force
   -.873E-15 -.174E-14 0.272E-13   -.479E-14 0.465E-15 -.426E-13   -.137E-25 -.478E-25 0.317E-25
   -.259E-14 -.219E-14 0.174E-13   -.278E-14 0.402E-14 0.000E+00   0.212E-24 0.100E-25 0.103E-25
   0.341E-03 -.255E-03 0.565E-11   0.458E-03 -.180E-03 0.000E+00   -.231E-16 0.101E-16 -.897E-25
   -.341E-03 0.255E-03 0.869E-11   -.458E-03 0.180E-03 0.284E-13   0.245E-16 -.117E-16 0.416E-24
   0.114E-02 -.675E-03 0.638E+02   0.299E-03 -.153E-03 -.716E+02   0.267E-17 0.120E-17 0.774E+01
   -.114E-02 0.675E-03 0.638E+02   -.299E-03 0.153E-03 -.716E+02   -.590E-17 -.134E-18 0.774E+01
   -.114E-02 0.675E-03 -.638E+02   -.299E-03 0.153E-03 0.716E+02   -.121E-17 -.765E-18 -.774E+01
   0.114E-02 -.675E-03 -.638E+02   0.299E-03 -.153E-03 0.716E+02   0.112E-17 0.329E-18 -.774E+01
   0.209E-11 0.761E-12 0.189E-10   -.450E-15 -.818E-15 0.284E-13   -.194E-17 -.104E-17 0.000E+00

 POSITION                                       TOTAL-FORCE (eV/Angst)
      0.00000      0.00000      0.00000         0.000000     -0.000000      0.000000
      0.00000      0.00000      5.08790         0.000000     -0.000000     -0.000000
     -0.00000      2.57010      2.54395        -0.000000     -0.000000     -0.000000
      2.22578      1.28505      7.63185         0.000000      0.000000      0.000000
     -0.00000      2.57010      6.55514        -0.000000     -0.000000      0.015336
      2.22578      1.28505      1.46724         0.000000     -0.000000      0.015336
      2.22578      1.28505      3.62066         0.000000      0.000000     -0.015336
     -0.00000      2.57010      8.70856        -0.000000      0.000000     -0.015336
    total drift:                                0.000000      0.000000      0.000000

  FREE ENERGIE OF THE ION-ELECTRON SYSTEM (eV)
  free  energy   TOTEN  =       -54.42527060 eV

  energy  without entropy=      -54.42721461  energy(sigma->0) =      -54.42575660

[...]

 d Force = 0.3262630E-04[ 0.199E-04, 0.454E-04]  d Energy = 0.3638309E-03-0.331E-03
 d Force =-0.2121472E+00[-0.212E+00,-0.212E+00]  d Ewald  = 0.9723346E+00-0.118E+01

 Steepest descent step on ions:
 trial-energy change:   -0.000364  1 .order   -0.000256   -0.000332   -0.000180
  (g-gl).g = 0.332E-03      g.g   = 0.332E-03  gl.gl    = 0.000E+00
 g(Force)  = 0.454E-04   g(Stress)= 0.287E-03 ortho     = 0.000E+00
 gamma     =   0.00000
 trial     =   1.00000
 opt step  =   1.19473  (harmonic =   2.18151) maximal distance =0.00088391
 next E    =   -54.425653   (d E  =  -0.00038)

[...]

 d Force = 0.2405106E-05[ 0.165E-05, 0.316E-05]  d Energy = 0.8500958E-04-0.826E-04
 d Force =-0.8278168E-01[-0.828E-01,-0.827E-01]  d Ewald  = 0.3791219E+00-0.462E+00

[...]

 d Force =-0.4683947E-05[-0.127E-04, 0.331E-05]  d Energy = 0.9538593E-04-0.100E-03
 d Force =-0.1658203E+00[-0.166E+00,-0.166E+00]  d Ewald  = 0.7587941E+00-0.925E+00

[...]

 d Force = 0.3513479E-05[ 0.215E-05, 0.488E-05]  d Energy =-0.2648248E-04 0.300E-04
 d Force = 0.6385809E-01[ 0.638E-01, 0.639E-01]  d Ewald  =-0.2922613E+00 0.356E+00

[...]

 d Force = 0.4171016E-05[ 0.973E-05,-0.139E-05]  d Energy = 0.4155738E-04-0.374E-04
 d Force =-0.4134311E-01[-0.413E-01,-0.414E-01]  d Ewald  =-0.5917989E+00 0.550E+00

 Conjugate gradient step on ions:
 trial-energy change:   -0.000042  1 .order   -0.000056   -0.000113    0.000001
  (g-gl).g = 0.106E-03      g.g   = 0.961E-04  gl.gl    = 0.332E-03
 g(Force)  = 0.113E-05   g(Stress)= 0.950E-04 ortho     =-0.950E-05
 gamma     =   0.31791
 trial     =   1.21264
 opt step  =   1.18062  (harmonic =   1.20452) maximal distance =0.00013984
 next E    =   -54.425882   (d E  =  -0.00004)

[...]

 d Force =-0.2502977E-06[-0.244E-06,-0.257E-06]  d Energy = 0.8887228E-06-0.114E-05
 d Force = 0.1089762E-02[ 0.109E-02, 0.109E-02]  d Ewald  = 0.1561426E-01-0.145E-01

[...]

 eigenvalue-minimisations  :     0
 total energy-change (2. order) : 0.2396117E-05  ( 0.1503535E-07)
 number of electron      52.0000019 magnetization       0.0000000
 augmentation part       14.7144715 magnetization       0.0000000

[...]

 d Force = 0.2439055E-06[ 0.250E-06, 0.238E-06]  d Energy =-0.8964034E-06 0.114E-05
 d Force =-0.1062136E-02[-0.106E-02,-0.106E-02]  d Ewald  =-0.1521766E-01 0.142E-01

[...]

 d Force = 0.5461597E-04[ 0.354E-04, 0.739E-04]  d Energy = 0.1620716E-04 0.384E-04
 d Force =-0.3141745E+00[-0.315E+00,-0.314E+00]  d Ewald  =-0.9706924E+00 0.657E+00

 Conjugate gradient step on ions:
 trial-energy change:   -0.000016  1 .order   -0.000057   -0.000073   -0.000040
  (g-gl).g = 0.678E-04      g.g   = 0.632E-04  gl.gl    = 0.961E-04
 g(Force)  = 0.552E-04   g(Stress)= 0.797E-05 ortho     =-0.381E-05
 gamma     =   0.70537
 trial     =   1.21248
 opt step  =   2.68899  (harmonic =   2.68899) maximal distance =0.00241938
 next E    =   -54.425964   (d E  =  -0.00008)

[...]

 d Force = 0.4828628E-05[-0.334E-04, 0.431E-04]  d Energy =-0.3952263E-04 0.444E-04
 d Force =-0.3839661E+00[-0.385E+00,-0.383E+00]  d Ewald  =-0.1182527E+01 0.799E+00

[...]

 d Force = 0.7760785E-05[ 0.589E-06, 0.149E-04]  d Energy = 0.2868135E-04-0.209E-04
 d Force = 0.1718138E+00[ 0.172E+00, 0.172E+00]  d Ewald  = 0.5291774E+00-0.357E+00

[...]

 eigenvalue-minimisations  :     0
 total energy-change (2. order) :-0.2682056E-05  (-0.1815223E-06)
 number of electron      52.0000020 magnetization       0.0000001
 augmentation part       14.7148635 magnetization      -0.0000002

[...]

 eigenvalue-minimisations  :     0
 total energy-change (2. order) : 0.9296855E-08  (-0.9102231E-08)
 number of electron      52.0000020 magnetization       0.0000001
 augmentation part       14.7147134 magnetization      -0.0000001

[...]

 d Force =-0.1052364E-05[-0.222E-05, 0.113E-06]  d Energy = 0.3980910E-05-0.503E-05
 d Force = 0.3287555E-01[ 0.329E-01, 0.329E-01]  d Ewald  = 0.1013211E+00-0.684E-01

[...]

 eigenvalue-minimisations  :     0
 total energy-change (2. order) : 0.1015873E-05  ( 0.4964763E-08)
 number of electron      52.0000020 magnetization      -0.0000000
 augmentation part       14.7147197 magnetization       0.0000000

[...]

--------------------------------------- Iteration     15(  16)  ---------------------------------------

 eigenvalue-minimisations  :     0
 total energy-change (2. order) :-0.9875293E-08  ( 0.6039108E-11)
 number of electron      52.0000020 magnetization      -0.0000000
 augmentation part       14.7147250 magnetization       0.0000000

 Free energy of the ion-electron system (eV)
  alpha Z        PSCENC =        81.91707136
  Ewald energy   TEWEN  =     -2439.24459551
  -Hartree energ DENC   =     -1062.24828352
  -exchange      EXHF   =         0.00000000
  -V(xc)+E(xc)   XCENC  =       191.64825331
  PAW double counting   =      4487.15941205    -4854.70404250
  entropy T*S    EENTRO =         0.00193579
  eigenvalues    EBANDS =      -630.41617115
  atomic energy  EATOM  =      4171.46053254
  free energy    TOTEN  =       -54.42588763 eV

  energy without entropy =      -54.42782342  energy(sigma->0) =      -54.42637158

  average scaling for gradient   1.2275

 average (electrostatic) potential at core
  the test charge radii are     0.9254  0.9698
  (the norm of the test charge is              1.0000)
       1 -51.7121       2 -51.7121       3 -51.5951       4 -51.5951       5 -91.9711
       6 -91.9711       7 -91.9711       8 -91.9711

 E-fermi :   1.9216     XC(G=0):  -8.8258     alpha+bet : -8.6914

 Fermi energy:         1.9216153527

[...]

 k-point    10 :       0.4000    0.2000    0.5000
  band No.  band energies     occupation
      1     -22.2249      1.00000
      2     -22.2249      1.00000
      3     -22.2222      1.00000
      4     -22.2222      1.00000
      5     -22.2184      1.00000
      6     -22.2184      1.00000
      7     -22.1403      1.00000
      8     -22.1403      1.00000
      9     -22.1323      1.00000
     10     -22.1323      1.00000
     11     -22.1201      1.00000
     12     -22.1201      1.00000
     13     -12.5136      1.00000
     14     -12.5136      1.00000
     15      -8.7442      1.00000
     16      -8.7442      1.00000
     17      -2.3870      1.00000
     18      -2.3870      1.00000
     19      -1.9952      1.00000
     20      -1.9952      1.00000
     21      -1.4577      1.00000
     22      -1.4577      1.00000
     23       0.6898      1.00000
     24       0.6898      1.00000
     25       1.1105      1.00000
     26       1.1105      1.00000
     27       4.5090      0.00000
     28       4.5090      0.00000
     29       7.2535      0.00000
     30       7.2535      0.00000
     31       8.8935      0.00000
     32       8.8935      0.00000
 Fermi energy:         1.9216153527

 spin component 2

[...]

 k-point    10 :       0.4000    0.2000    0.5000
  band No.  band energies     occupation
      1     -22.2249      1.00000
      2     -22.2249      1.00000
      3     -22.2222      1.00000
      4     -22.2222      1.00000
      5     -22.2184      1.00000
      6     -22.2184      1.00000
      7     -22.1403      1.00000
      8     -22.1403      1.00000
      9     -22.1323      1.00000
     10     -22.1323      1.00000
     11     -22.1201      1.00000
     12     -22.1201      1.00000
     13     -12.5136      1.00000
     14     -12.5136      1.00000
     15      -8.7442      1.00000
     16      -8.7442      1.00000
     17      -2.3870      1.00000
     18      -2.3870      1.00000
     19      -1.9952      1.00000
     20      -1.9952      1.00000
     21      -1.4577      1.00000
     22      -1.4577      1.00000
     23       0.6898      1.00000
     24       0.6898      1.00000
     25       1.1105      1.00000
     26       1.1105      1.00000
     27       4.5090      0.00000
     28       4.5090      0.00000
     29       7.2535      0.00000
     30       7.2535      0.00000
     31       8.8935      0.00000
     32       8.8937      0.00000

[...]

 soft charge-density along one line, spin component           2
         0         1         2         3         4         5         6         7         8         9
 total charge-density along one line

------------------------ aborting loop because EDIFF is reached ----------------------------------------

[...]

  FORCE on cell =-STRESS in cart. coord.  units (eV):
  Direction    XX          YY          ZZ          XY          YZ          ZX
  Alpha Z    81.91707    81.91707    81.91707
  Ewald    -822.52036  -822.51934  -794.20894     0.00113     0.00000     0.00000
  Hartree   370.73715   370.73753   320.77361     0.00028    -0.00000    -0.00000
  E(xc)    -249.67667  -249.50670  -250.22714    -0.24391     0.00000    -0.00000
  Local    -234.48198  -234.48364  -144.16468    -0.00125     0.00000    -0.00000
  n-local   199.90984   202.47822   182.58286    -4.11102    -0.00000    -0.00000
  augment   113.80556   113.80590   119.74777     0.00026     0.00000     0.00000
  Kinetic   535.54231   542.34423   483.57634   -10.18189     0.00000    -0.00000
  Fock        0.00000     0.00000     0.00000     0.00000     0.00000     0.00000
  Total       0.00309     0.00309    -0.00311     0.00000    -0.00000     0.00000
  in kB       0.02835     0.02835    -0.02859     0.00000    -0.00000     0.00000

 VOLUME and BASIS-vectors are now :
  energy-cutoff  :      680.00
  volume of cell :      174.48
      direct lattice vectors                 reciprocal lattice vectors
     4.443186008 -0.000000000 -0.000000000     0.225063726  0.129940539 -0.000000000
    -2.221593004  3.847913838  0.000000000     0.000000000  0.259881079  0.000000000
     0.000000000 -0.000000000 10.205154984     0.000000000 -0.000000000  0.097989693

  length of vectors
     4.443186008  4.443187637 10.205154984     0.259881174  0.259881079  0.097989693

 FORCES acting on ions:
    Electron-Ion                     Ewald-Force                    Non-Local-Force
   -.986E-14 -.153E-13 0.303E-13   -.825E-15 0.364E-14 0.284E-13   -.545E-24 0.581E-25 -.770E-27
   -.103E-13 -.151E-13 0.146E-13   0.657E-14 0.344E-14 -.497E-13   -.236E-24 0.460E-24 0.830E-26
   0.340E-03 -.255E-03 0.579E-11   0.458E-03 -.180E-03 -.711E-14   0.336E-16 -.919E-17 -.631E-25
   -.340E-03 0.255E-03 0.857E-11   -.458E-03 0.180E-03 0.568E-13   -.337E-16 0.113E-16 -.102E-24
   0.114E-02 -.673E-03 0.645E+02   0.298E-03 -.152E-03 -.722E+02   0.159E-17 -.599E-17 0.774E+01
   -.114E-02 0.673E-03 0.645E+02   -.298E-03 0.152E-03 -.722E+02   -.481E-17 0.149E-17 0.774E+01
   -.114E-02 0.673E-03 -.645E+02   -.298E-03 0.152E-03 0.722E+02   -.168E-17 0.302E-17 -.774E+01
   0.114E-02 -.673E-03 -.645E+02   0.298E-03 -.152E-03 0.722E+02   0.367E-17 0.138E-17 -.774E+01
   0.653E-12 0.894E-12 0.177E-10   0.147E-14 0.495E-14 0.000E+00   -.132E-17 0.199E-17 0.000E+00

 POSITION                                       TOTAL-FORCE (eV/Angst)
      0.00000     -0.00000     -0.00000        -0.000000      0.000000     -0.000000
      0.00000     -0.00000      5.10258        -0.000000      0.000000     -0.000000
     -0.00000      2.56528      2.55129         0.000000     -0.000000     -0.000000
      2.22160      1.28264      7.65387         0.000000      0.000000     -0.000000
     -0.00000      2.56528      6.57754         0.000000      0.000000      0.000830
      2.22160      1.28264      1.47496         0.000000     -0.000000      0.000830
      2.22160      1.28264      3.62762         0.000000     -0.000000     -0.000830
     -0.00000      2.56528      8.73020        -0.000000      0.000000     -0.000830
    total drift:                                0.000000      0.000000      0.000000

  FREE ENERGIE OF THE ION-ELECTRON SYSTEM (eV)
  free  energy   TOTEN  =       -54.42588763 eV

  energy  without entropy=      -54.42782342  energy(sigma->0) =      -54.42637158

 d Force = 0.3699719E-07[ 0.305E-07, 0.435E-07]  d Energy =-0.2391416E-06 0.276E-06
 d Force =-0.2649934E-02[-0.265E-02,-0.265E-02]  d Ewald  =-0.8165666E-02 0.552E-02

 reached required accuracy - stopping structural energy minimisation

 total charge

[...]

 magnetization (x)

# of ion       s       p       d       tot
    1        0.000   0.000   0.000   0.000
    2        0.000   0.000   0.000   0.000
    3        0.000   0.000   0.000   0.000
    4        0.000   0.000   0.000   0.000
    5       -0.000  -0.000   0.000  -0.000
    6       -0.000  -0.000   0.000  -0.000
    7       -0.000  -0.000   0.000  -0.000
    8       -0.000  -0.000   0.000  -0.000
tot         -0.000  -0.000   0.000  -0.000