 vasp.6.3.2 27Jun22 (build Mar 25 2024 10:42:18) complex
 executed on             LinuxGNU date 2024.03.25  18:07:17

 INCAR:
   ISTART = 0
   ICHARG = 2
   PREC = Accurate
   ISIF = 3
   IBRION = 2
   EDIFF = 0.000000001
   EDIFFG = -0.0005
   NSW = 200
   NELM = 200
   ENCUT = 520
   ISMEAR = -5
   SIGMA = 0.05
   ISPIN = 2
   ISYM = 1
   LWAVE = False
   LCHARG = False
   MAGMOM = 12*0.6
   LASPH = True
   LORBIT = 11
   LREAL = Auto

 POTCAR:    PAW_PBE Na_pv 19Sep2006
 POTCAR:    PAW_PBE S 06Sep2000
|           W    W    AA    RRRRR   N    N  II  N    N   GGGG   !!!           |
|           W    W   A  A   R    R  NN   N  II  NN   N  G    G  !!!           |
|           W    W  A    A  R    R  N N  N  II  N N  N  G       !!!           |
|           W WW W  AAAAAA  RRRRR   N  N N  II  N  N N  G  GGG   !            |
|           WW  WW  A    A  R   R   N   NN  II  N   NN  G    G                |
|           W    W  A    A  R    R  N    N  II  N    N   GGGG   !!!           |
|     For optimal performance we recommend to set                             |
|       NCORE = 2 up to number-of-cores-per-socket                            |
|     This setting can greatly improve the performance of VASP for DFT.       |
|     The default, NCORE=1 might be grossly inefficient on modern             |
|     multi-core architectures or massively parallel machines. Do your        |
|     Unfortunately you need to use the default for GW and RPA                |
|     calculations (for HF NCORE is supported but not extensively tested      |
|     yet).                                                                   |

   TITEL  = PAW_PBE Na_pv 19Sep2006
   POMASS =   22.990; ZVAL   =    7.000    mass and valenz
   ENMAX  =  259.561; ENMIN  =  194.671 eV

   TITEL  = PAW_PBE S 06Sep2000
   POMASS =   32.066; ZVAL   =    6.000    mass and valenz
   ENMAX  =  258.689; ENMIN  =  194.016 eV

 Optimization of the real space projectors (new method)

 maximal supplied QI-value         = 17.01
 optimisation between [QCUT,QGAM] = [ 11.57, 23.30] = [ 37.45,152.03] Ry
 Optimized for a Real-space Cutoff    1.45 Angstroem

   l    n(q)    QCUT    max X(q) W(low)/X(q) W(high)/X(q)  e(spline)
   1     10    11.565     4.940    0.87E-04    0.13E-03    0.13E-06
   1     10    11.565     6.253    0.13E-03    0.19E-03    0.20E-06
   0     10    11.565    37.438    0.53E-04    0.73E-05    0.79E-07
   0     10    11.565     9.606    0.27E-04    0.60E-05    0.56E-07
 Optimization of the real space projectors (new method)

 maximal supplied QI-value         = 19.84
 optimisation between [QCUT,QGAM] = [ 11.51, 23.22] = [ 37.09,150.92] Ry
 Optimized for a Real-space Cutoff    1.21 Angstroem

   l    n(q)    QCUT    max X(q) W(low)/X(q) W(high)/X(q)  e(spline)
   0      8    11.508   187.594    0.96E-04    0.18E-03    0.54E-07
   0      8    11.508   164.243    0.96E-04    0.18E-03    0.54E-07
   1      8    11.508    67.533    0.18E-03    0.65E-04    0.94E-07
   1      8    11.508    50.729    0.18E-03    0.63E-04    0.92E-07
  PAW_PBE Na_pv 19Sep2006               :
  PAW_PBE S 06Sep2000                   :

 POSCAR: Na8 S4
  positions in direct lattice
 exchange correlation table for  LEXCH =        8
   RHO(1)=    0.500       N(1)  =     2000
   RHO(2)=  100.500       N(2)  =     4000

 ion  position               nearest neighbor table
   1  0.250  0.250  0.250-
   2  0.250  0.750  0.250-
   3  0.250  0.750  0.750-
   4  0.250  0.250  0.750-
   5  0.750  0.250  0.750-
   6  0.750  0.750  0.750-
   7  0.750  0.750  0.250-
   8  0.750  0.250  0.250-
   9  0.000  0.000  0.000-
  10  0.000  0.500  0.500-
  11  0.500  0.000  0.500-
  12  0.500  0.500  0.000-

  LATTYP: Found a simple cubic cell.
 ALAT       =     6.4983089787

  Lattice vectors:

 A1 = (   6.4983089787,   0.0000000000,   0.0000000000)
 A2 = (   0.0000000000,   6.4983089787,   0.0000000000)
 A3 = (   0.0000000000,   0.0000000000,   6.4983089787)

Analysis of symmetry for initial positions (statically):
 Subroutine PRICEL returns following result:

  LATTYP: Found a face centered cubic cell.
 ALAT       =     6.4983089787

[...]

   4 primitive cells build up your supercell.

 Routine SETGRP: Setting up the symmetry group for a
 simple cubic supercell.

 Subroutine GETGRP returns: Found 48 space group operations
 (whereof 48 operations were pure point group operations)
 out of a pool of 48 trial point group operations.

The static configuration has the point symmetry O_h .

Analysis of symmetry for dynamics (positions and initial velocities):
 Subroutine PRICEL returns following result:

[...]

The dynamic configuration has the point symmetry O_h .

Analysis of structural, dynamic, and magnetic symmetry:
 Subroutine PRICEL returns following result:

  LATTYP: Found a face centered cubic cell.
 ALAT       =     6.4983089787

  Lattice vectors:

 A1 = (   3.2491544893,  -3.2491544893,   0.0000000000)
 A2 = (   3.2491544893,   0.0000000000,   3.2491544893)
 A3 = (  -0.0000000000,  -3.2491544893,   3.2491544893)

   4 primitive cells build up your supercell.

 Routine SETGRP: Setting up the symmetry group for a
 simple cubic supercell.

 Subroutine GETGRP returns: Found 48 space group operations
 (whereof 48 operations were pure point group operations)
 out of a pool of 48 trial point group operations.

The overall configuration has the point symmetry O_h .

 Subroutine INISYM returns: Found 48 space group operations
 (whereof 48 operations are pure point group operations),
 and found     4 'primitive' translations

                                     Primitive cell

  volume of cell :      68.6027

  direct lattice vectors                    reciprocal lattice vectors
     3.249154489 -3.249154489  0.000000000     0.153886188 -0.153886188 -0.153886188
     3.249154489  0.000000000  3.249154489     0.153886188  0.153886188  0.153886188
    -0.000000000 -3.249154489  3.249154489    -0.153886188 -0.153886188  0.153886188

  length of vectors
     4.594998345  4.594998345  4.594998345     0.266538697  0.266538697  0.266538697

  position of ions in fractional coordinates (direct lattice)
     0.750000000  0.750000000  0.750000000
     0.250000000  0.250000000  0.250000000
     0.000000000  0.000000000  0.000000000

  ion indices of the primitive-cell ions
   primitive index   ion index
                 1           1
                 2           2
                 3           9

 KPOINTS: pymatgen with grid density = 694 / numbe

Automatic generation of k-mesh.
 Grid dimensions read from file:
 generate k-points for:    3    3    3

 Generating k-lattice:

  Cartesian coordinates                     Fractional coordinates (reciprocal lattice)
     0.051295396 -0.000000000  0.000000000     0.333333333  0.000000000  0.000000000
     0.000000000  0.051295396  0.000000000     0.000000000  0.333333333  0.000000000
    -0.000000000 -0.000000000  0.051295396     0.000000000  0.000000000  0.333333333

  Length of vectors
     0.051295396  0.051295396  0.051295396

  Shift w.r.t. Gamma in fractional coordinates (k-lattice)
     0.000000000  0.000000000  0.000000000

 TETIRR: Found     11 inequivalent tetrahedra from      162

 Subroutine IBZKPT returns following result:

 Found      4 irreducible k-points:

 Following reciprocal coordinates:
            Coordinates               Weight
  0.000000  0.000000  0.000000      1.000000
  0.333333  0.000000  0.000000      6.000000
  0.333333  0.333333  0.000000     12.000000
  0.333333  0.333333  0.333333      8.000000

 Following cartesian coordinates:
            Coordinates               Weight
  0.000000  0.000000  0.000000      1.000000
  0.051295  0.000000  0.000000      6.000000
  0.051295  0.051295  0.000000     12.000000
  0.051295  0.051295  0.051295      8.000000

 SYSTEM =  unknown system
 POSCAR =  Na8 S4

 Startparameter for this run:
   NWRITE =      2    write-flag & timer
   PREC   = accura    normal or accurate (medium, high low for compatibility)
   ISTART =      0    job   : 0-new  1-cont  2-samecut
   ICHARG =      2    charge: 1-file 2-atom 10-const
   ISPIN  =      2    spin polarized calculation?
   LNONCOLLINEAR =      F non collinear calculations
   LSORBIT =      F    spin-orbit coupling
   INIWAV =      1    electr: 0-lowe 1-rand  2-diag
   LASPH  =      T    aspherical Exc in radial PAW
 Electronic Relaxation 1
   ENCUT  =  520.0 eV  38.22 Ry    6.18 a.u.  12.08 12.08 12.08*2*pi/ulx,y,z
   ENINI  =  520.0     initial cutoff
   ENAUG  =  368.1 eV  augmentation charge cutoff
   NELM   =    200;   NELMIN=  2; NELMDL= -5     # of ELM steps
   EDIFF  = 0.1E-08   stopping-criterion for ELM
   LREAL  =      T    real-space projection
   NLSPLINE    = F    spline interpolate recip. space projectors
   LCOMPAT=      F    compatible to vasp.4.4
   GGA_COMPAT  = T    GGA compatible to vasp.4.4-vasp.4.6
   LMAXPAW     = -100 max onsite density
   LMAXMIX     =    2 max onsite mixed and CHGCAR
   VOSKOWN=      0    Vosko Wilk Nusair interpolation
   ROPT   =   -0.00025  -0.00025
 Ionic relaxation
   EDIFFG = -.5E-03   stopping-criterion for IOM
   NSW    =    200    number of steps for IOM
   NBLOCK =      1;   KBLOCK =    200    inner block; outer block
   IBRION =      2    ionic relax: 0-MD 1-quasi-New 2-CG
   NFREE  =      1    steps in history (QN), initial steepest desc. (CG)
   ISIF   =      3    stress and relaxation
   IWAVPR =     11    prediction:  0-non 1-charg 2-wave 3-comb
   ISYM   =      1    0-nonsym 1-usesym 2-fastsym
   LCORR  =      T    Harris-Foulkes like correction to forces

   POTIM  = 0.5000    time-step for ionic-motion
   TEIN   =    0.0    initial temperature
   TEBEG  =    0.0;   TEEND  =   0.0 temperature during run
   SMASS  =  -3.00    Nose mass-parameter (am)
   estimated Nose-frequenzy (Omega)   =  0.10E-29 period in steps = 0.13E+47 mass=  -0.965E-27a.u.
   SCALEE = 1.0000    scale energy and forces
   NPACO  =    256;   APACO  = 10.0  distance and # of slots for P.C.
   PSTRESS=    0.0 pullay stress

  Mass of Ions in am
   POMASS =  22.99 32.07
  Ionic Valenz
   ZVAL   =   7.00  6.00
  Atomic Wigner-Seitz radii
  virtual crystal weights
   VCA    =   1.00  1.00
   NELECT =      80.0000    total number of electrons
   NUPDOWN=      -1.0000    fix difference up-down

 DOS related values:
   EMIN   =  10.00;   EMAX   =-10.00  energy-range for DOS
   EFERMI =   0.00
   ISMEAR =    -5;   SIGMA  =   0.05  broadening in eV -4-tet -1-fermi 0-gaus

 Electronic relaxation 2 (details)
   IALGO  =     38    algorithm
   LDIAG  =      T    sub-space diagonalisation (order eigenvalues)
   LSUBROT=      F    optimize rotation matrix (better conditioning)
   TURBO    =      0    0=normal 1=particle mesh
   IRESTART =      0    0=no restart 2=restart with 2 vectors
   NREBOOT  =      0    no. of reboots
   NMIN     =      0    reboot dimension
   EREF     =   0.00    reference energy to select bands
   IMIX   =      4    mixing-type and parameters
     AMIX     =   0.40;   BMIX     =  1.00
     AMIX_MAG =   1.60;   BMIX_MAG =  1.00
     AMIN     =   0.10
     WC   =   100.;   INIMIX=   1;  MIXPRE=   1;  MAXMIX= -45

 Intra band minimization:
   WEIMIN = 0.0010     energy-eigenvalue tresh-hold
[...]
  volume of cell :      274.41
      direct lattice vectors                 reciprocal lattice vectors
     6.498308979  0.000000000  0.000000000     0.153886188 -0.000000000  0.000000000
     0.000000000  6.498308979  0.000000000     0.000000000  0.153886188  0.000000000
     0.000000000  0.000000000  6.498308979    -0.000000000 -0.000000000  0.153886188

[...]

 FORCES acting on ions
    electron-ion (+dipol)            ewald-force                    non-local-force                 convergence-correction
   0.230E-12 -.871E-13 0.565E-12   -.142E-13 -.711E-14 -.355E-13   -.526E-18 0.129E-17 -.880E-18   0.189E-13 -.252E-13 0.641E-14
   0.164E-14 -.240E-12 -.221E-12   -.213E-13 0.000E+00 0.284E-13   0.130E-18 -.118E-17 0.391E-17   0.241E-13 0.219E-13 0.155E-13
   0.229E-12 -.149E-11 -.834E-12   -.142E-13 -.711E-14 -.213E-13   0.514E-19 0.151E-17 -.208E-17   0.186E-13 -.322E-13 -.102E-14
   0.328E-14 0.107E-11 -.155E-11   -.213E-13 0.000E+00 0.426E-13   0.335E-17 -.701E-18 0.262E-17   0.245E-13 0.288E-13 0.169E-13
   0.479E-12 -.985E-12 -.211E-12   -.711E-14 -.711E-14 -.284E-13   0.365E-18 -.442E-18 -.105E-19   0.513E-14 -.350E-13 0.938E-14
   0.261E-12 -.258E-11 -.531E-11   -.711E-14 0.000E+00 0.355E-13   0.112E-17 0.560E-18 0.217E-17   0.172E-13 0.183E-13 0.201E-13
   0.479E-12 -.148E-11 0.284E-12   -.711E-14 0.000E+00 -.284E-13   -.233E-19 -.319E-18 0.620E-18   0.662E-14 -.373E-13 0.102E-13
   0.260E-12 0.192E-11 -.812E-12   -.711E-14 0.000E+00 0.355E-13   0.430E-17 -.910E-18 0.176E-17   0.168E-13 0.212E-13 0.225E-13
   -.378E-15 0.935E-17 0.223E-14   -.266E-15 0.612E-14 -.736E-14   -.490E-25 -.484E-27 -.282E-25   0.256E-14 -.186E-14 0.570E-15
   -.275E-15 0.357E-13 0.377E-13   0.687E-14 0.717E-14 -.138E-13   0.736E-26 0.154E-25 0.983E-26   0.344E-14 -.106E-14 0.358E-14
   0.351E-13 -.133E-16 -.116E-11   0.755E-14 0.688E-14 -.629E-14   0.865E-26 -.138E-25 -.118E-25   -.550E-14 -.301E-14 0.490E-14
   0.352E-13 -.325E-12 -.660E-12   0.218E-13 0.792E-14 0.652E-14   0.867E-26 0.140E-26 -.161E-25   -.548E-14 -.175E-14 0.144E-14
   0.201E-11 -.416E-11 -.986E-11   -.635E-13 0.677E-14 0.750E-14   0.876E-17 -.186E-18 0.812E-17   0.127E-12 -.473E-13 0.110E-12

 POSITION                                       TOTAL-FORCE (eV/Angst)
      1.62458      1.62458      1.62458        -0.000000     -0.000000     -0.000000
      1.62458      4.87373      1.62458        -0.000000      0.000000     -0.000000
      1.62458      4.87373      4.87373         0.000000     -0.000000     -0.000000
      1.62458      1.62458      4.87373        -0.000000      0.000000      0.000000
      4.87373      1.62458      4.87373         0.000000     -0.000000      0.000000
      4.87373      4.87373      4.87373        -0.000000      0.000000      0.000000
      4.87373      4.87373      1.62458         0.000000     -0.000000     -0.000000
      4.87373      1.62458      1.62458        -0.000000      0.000000      0.000000
      0.00000      0.00000      0.00000         0.000000     -0.000000      0.000000
      0.00000      3.24915      3.24915         0.000000     -0.000000      0.000000
      3.24915      0.00000      3.24915         0.000000     -0.000000      0.000000
      3.24915      3.24915      0.00000         0.000000      0.000000      0.000000
    total drift:                                0.000000     -0.000000     -0.000000

  FREE ENERGIE OF THE ION-ELECTRON SYSTEM (eV)
  free  energy   TOTEN  =       -39.87811808 eV

  energy  without entropy=      -39.87811808  energy(sigma->0) =      -39.87811808

[...]

 d Force = 0.0000000E+00[ 0.000E+00, 0.000E+00]  d Energy = 0.2289828E-01-0.229E-01
 d Force = 0.0000000E+00[ 0.000E+00, 0.000E+00]  d Ewald  =-0.2532729E+02 0.253E+02

 Steepest descent step on ions:
 trial-energy change:   -0.022898  1 .order   -0.022949   -0.033718   -0.012181
  (g-gl).g = 0.337E-01      g.g   = 0.337E-01  gl.gl    = 0.000E+00
 g(Force)  = 0.181E-57   g(Stress)= 0.337E-01 ortho     = 0.000E+00
 gamma     =   0.00000
 trial     =   1.00000
 opt step  =   1.56557  (harmonic =   1.56557) maximal distance =0.00000000
 next E    =   -39.904512   (d E  =  -0.02639)

[...]

 eigenvalue-minimisations  :  1024
 total energy-change (2. order) :-0.2755223E-07  (-0.1361757E-09)
 number of electron      80.0000030 magnetization       0.0000000
 augmentation part       32.5490977 magnetization       0.0000000

[...]

 Broyden mixing:
  rms(total) = 0.22964E-05    rms(broyden)= 0.22964E-05
  rms(prec ) = 0.23720E-05
  weight for this iteration     100.00

 eigenvalues of (default mixing * dielectric matrix)
  average eigenvalue GAMMA=   1.6858
  3.6174  2.5575  2.5575  1.5121  1.2438  0.9965  1.0307  1.0307  0.6260

[...]

--------------------------------------- Iteration      4(  11)  ---------------------------------------

[...]

 eigenvalue-minimisations  :   512
 total energy-change (2. order) : 0.4174581E-09  (-0.1924949E-11)
 number of electron      80.0000030 magnetization      -0.0000000
 augmentation part       32.5490993 magnetization       0.0000000

 Free energy of the ion-electron system (eV)
  alpha Z        PSCENC =       126.73637645
  Ewald energy   TEWEN  =     -3752.30029191
  -Hartree energ DENC   =     -2048.52046059
  -exchange      EXHF   =         0.00000000
  -V(xc)+E(xc)   XCENC  =       249.22810825
  PAW double counting   =      5907.21653795    -6605.92016236
  entropy T*S    EENTRO =         0.00000000
  eigenvalues    EBANDS =     -1151.96649809
  atomic energy  EATOM  =      7235.62169894
  Solvation  Ediel_sol  =         0.00000000
  free energy    TOTEN  =       -39.90469137 eV

  energy without entropy =      -39.90469137  energy(sigma->0) =      -39.90469137

 average (electrostatic) potential at core
  the test charge radii are     0.9254  0.9698
  (the norm of the test charge is              1.0000)
       1 -47.9121       2 -47.9121       3 -47.9121       4 -47.9121       5 -47.9121
       6 -47.9121       7 -47.9121       8 -47.9121       9 -88.7364      10 -88.7364
      11 -88.7364      12 -88.7364

 E-fermi :   0.1347     XC(G=0):  -7.7744     alpha+bet : -7.8110

 Fermi energy:         0.1347023661

[...]

 k-point     4 :       0.3333    0.3333    0.3333
  band No.  band energies     occupation
      1     -22.1359      1.00000
      2     -22.1359      1.00000
      3     -22.1359      1.00000
      4     -22.1298      1.00000
      5     -22.1298      1.00000
      6     -22.1298      1.00000
      7     -22.1278      1.00000
      8     -22.1278      1.00000
      9     -22.1278      1.00000
     10     -22.1264      1.00000
     11     -22.1230      1.00000
     12     -22.1230      1.00000
     13     -22.1013      1.00000
     14     -22.0973      1.00000
     15     -22.0973      1.00000
     16     -22.0956      1.00000
     17     -22.0956      1.00000
     18     -22.0956      1.00000
     19     -22.0934      1.00000
     20     -22.0934      1.00000
     21     -22.0934      1.00000
     22     -22.0905      1.00000
     23     -22.0905      1.00000
     24     -22.0905      1.00000
     25      -9.8141      1.00000
     26      -9.7349      1.00000
     27      -9.7349      1.00000
     28      -9.7349      1.00000
     29      -1.3276      1.00000
     30      -1.3276      1.00000
     31      -1.3276      1.00000
     32      -1.1914      1.00000
     33      -0.2901      1.00000
     34      -0.2901      1.00000
     35      -0.2901      1.00000
     36      -0.0834      1.00000
     37      -0.0834      1.00000
     38      -0.0834      1.00000
     39       0.0350      1.00000
     40       0.0350      1.00000
     41       4.4260      0.00000
     42       5.2032      0.00000
     43       5.2032      0.00000
     44       5.2032      0.00000
     45       6.0023      0.00000
     46       6.0023      0.00000
     47       6.0023      0.00000
     48       6.8318      0.00000
     49       7.4682      0.00000
     50       7.4682      0.00000
     51       7.4682      0.00000
     52       7.4997      0.00000
     53       7.4997      0.00000
     54       7.7320      0.00000
     55       7.7320      0.00000
     56       7.7320      0.00000
     57       9.8470      0.00000
     58       9.8470      0.00000
     59       9.8558      0.00000
     60       9.8558      0.00000
     61       9.8558      0.00000
     62      10.4337      0.00000
     63      11.4792      0.00000
     64      11.4792      0.00000
 Fermi energy:         0.1347023661

 spin component 2

[...]

 k-point     4 :       0.3333    0.3333    0.3333
  band No.  band energies     occupation
      1     -22.1359      1.00000
      2     -22.1359      1.00000
      3     -22.1359      1.00000
      4     -22.1298      1.00000
      5     -22.1298      1.00000
      6     -22.1298      1.00000
      7     -22.1278      1.00000
      8     -22.1278      1.00000
      9     -22.1278      1.00000
     10     -22.1264      1.00000
     11     -22.1230      1.00000
     12     -22.1230      1.00000
     13     -22.1013      1.00000
     14     -22.0973      1.00000
     15     -22.0973      1.00000
     16     -22.0956      1.00000
     17     -22.0956      1.00000
     18     -22.0956      1.00000
     19     -22.0934      1.00000
     20     -22.0934      1.00000
     21     -22.0934      1.00000
     22     -22.0905      1.00000
     23     -22.0905      1.00000
     24     -22.0905      1.00000
     25      -9.8141      1.00000
     26      -9.7349      1.00000
     27      -9.7349      1.00000
     28      -9.7349      1.00000
     29      -1.3276      1.00000
     30      -1.3276      1.00000
     31      -1.3276      1.00000
     32      -1.1914      1.00000
     33      -0.2901      1.00000
     34      -0.2901      1.00000
     35      -0.2901      1.00000
     36      -0.0834      1.00000
     37      -0.0834      1.00000
     38      -0.0834      1.00000
     39       0.0350      1.00000
     40       0.0350      1.00000
     41       4.4260      0.00000
     42       5.2032      0.00000
     43       5.2032      0.00000
     44       5.2032      0.00000
     45       6.0023      0.00000
     46       6.0023      0.00000
     47       6.0023      0.00000
     48       6.8318      0.00000
     49       7.4682      0.00000
     50       7.4682      0.00000
     51       7.4682      0.00000
     52       7.4997      0.00000
     53       7.4997      0.00000
     54       7.7320      0.00000
     55       7.7320      0.00000
     56       7.7320      0.00000
     57       9.8470      0.00000
     58       9.8470      0.00000
     59       9.8558      0.00000
     60       9.8558      0.00000
     61       9.8558      0.00000
     62      10.4337      0.00000
     63      11.4792      0.00000
     64      11.4792      0.00000

[...]

 soft charge-density along one line, spin component           2
         0         1         2         3         4         5         6         7         8         9
 total charge-density along one line

------------------------ aborting loop because EDIFF is reached ----------------------------------------

[...]

  FORCE on cell =-STRESS in cart. coord.  units (eV):
  Direction    XX          YY          ZZ          XY          YZ          ZX
  Alpha Z   126.73638   126.73638   126.73638
  Ewald   -1250.76990 -1250.76990 -1250.76990     0.00000     0.00000     0.00000
  Hartree   682.84014   682.84014   682.84014    -0.00000    -0.00000    -0.00000
  E(xc)    -389.10470  -389.10470  -389.10470     0.00000     0.00000    -0.00000
  Local    -264.94709  -264.94709  -264.94709    -0.00000    -0.00000     0.00000
  n-local   111.06003   112.04706   112.21248    -0.57898    -0.21666    -0.21666
  augment   266.93280   266.93280   266.93280    -0.00000    -0.00000    -0.00000
  Kinetic   713.94831   716.88408   718.77480    -1.57463    -0.60532    -0.60532
  Fock        0.00000     0.00000     0.00000     0.00000     0.00000     0.00000
  Total      -0.00345    -0.00345    -0.00345     0.00000     0.00000     0.00000
  in kB      -0.01948    -0.01948    -0.01948     0.00000     0.00000     0.00000

 VOLUME and BASIS-vectors are now :
  energy-cutoff  :      520.00
  volume of cell :      283.48
      direct lattice vectors                 reciprocal lattice vectors
     6.569113431  0.000000000  0.000000000     0.152227543 -0.000000000 -0.000000000
     0.000000000  6.569113431  0.000000000    -0.000000000  0.152227543 -0.000000000
     0.000000000  0.000000000  6.569113431    -0.000000000 -0.000000000  0.152227543

  length of vectors
     6.569113431  6.569113431  6.569113431     0.152227543  0.152227543  0.152227543

 FORCES acting on ions
    electron-ion (+dipol)            ewald-force                    non-local-force                 convergence-correction
   0.202E-12 -.109E-12 0.549E-12   -.142E-13 -.711E-14 -.711E-14   -.200E-17 0.159E-19 -.402E-17   0.579E-13 0.317E-13 -.350E-13
   0.362E-13 -.213E-12 -.236E-12   0.142E-13 0.000E+00 0.000E+00   -.222E-18 0.193E-18 -.301E-18   0.163E-13 -.135E-13 0.600E-13
   0.201E-12 -.148E-11 -.817E-12   -.142E-13 -.711E-14 -.711E-14   -.350E-17 0.100E-18 -.354E-17   0.578E-13 0.340E-13 -.325E-13
   0.376E-13 0.106E-11 -.153E-11   0.142E-13 0.000E+00 0.000E+00   0.101E-17 -.105E-17 -.498E-18   0.193E-13 -.167E-13 0.597E-13
   0.454E-12 -.967E-12 -.173E-12   -.142E-13 -.711E-14 -.711E-14   -.198E-17 0.143E-17 -.337E-17   0.652E-13 0.234E-13 -.331E-13
   0.286E-12 -.256E-11 -.530E-11   0.711E-14 0.000E+00 0.000E+00   0.630E-18 -.249E-18 0.563E-18   0.183E-13 -.234E-13 0.576E-13
   0.455E-12 -.145E-11 0.307E-12   -.142E-13 -.711E-14 -.142E-13   -.393E-17 0.250E-17 -.431E-17   0.694E-13 0.241E-13 -.339E-13
   0.286E-12 0.193E-11 -.819E-12   0.711E-14 0.000E+00 -.711E-14   -.851E-18 0.209E-17 0.158E-17   0.165E-13 -.243E-13 0.574E-13
   0.503E-15 -.886E-16 -.715E-15   -.147E-13 0.618E-14 -.709E-14   -.407E-26 -.124E-26 0.133E-25   0.121E-14 0.201E-14 0.203E-14
   0.480E-15 0.362E-13 0.356E-13   0.137E-13 0.767E-14 0.148E-13   -.191E-26 -.353E-26 0.179E-25   0.952E-15 0.103E-14 0.941E-15
   0.367E-13 -.151E-15 -.117E-11   0.147E-13 0.647E-14 0.738E-14   0.946E-26 0.249E-26 0.761E-26   0.545E-14 -.219E-15 0.173E-14
   0.367E-13 -.320E-12 -.651E-12   0.219E-13 0.796E-14 0.593E-14   0.325E-26 -.360E-27 0.389E-26   0.586E-14 -.757E-15 0.179E-14
   0.203E-11 -.407E-11 -.980E-11   0.214E-13 -.149E-15 -.216E-13   -.108E-16 0.502E-17 -.139E-16   0.334E-12 0.374E-13 0.107E-12

 POSITION                                       TOTAL-FORCE (eV/Angst)
      1.64228      1.64228      1.64228        -0.000000     -0.000000     -0.000000
      1.64228      4.92684      1.64228        -0.000000      0.000000      0.000000
      1.64228      4.92684      4.92684        -0.000000     -0.000000     -0.000000
      1.64228      1.64228      4.92684         0.000000      0.000000     -0.000000
      4.92684      1.64228      4.92684        -0.000000     -0.000000     -0.000000
      4.92684      4.92684      4.92684         0.000000      0.000000      0.000000
      4.92684      4.92684      1.64228        -0.000000     -0.000000     -0.000000
      4.92684      1.64228      1.64228        -0.000000      0.000000      0.000000
      0.00000     -0.00000      0.00000         0.000000      0.000000      0.000000
      0.00000      3.28456      3.28456         0.000000     -0.000000      0.000000
      3.28456      0.00000      3.28456         0.000000      0.000000      0.000000
      3.28456      3.28456      0.00000         0.000000      0.000000      0.000000
    total drift:                                0.000000     -0.000000     -0.000000

  FREE ENERGIE OF THE ION-ELECTRON SYSTEM (eV)
  free  energy   TOTEN  =       -39.90469137 eV

  energy  without entropy=      -39.90469137  energy(sigma->0) =      -39.90469137

 d Force = 0.0000000E+00[ 0.000E+00, 0.000E+00]  d Energy = 0.2947509E-04-0.295E-04
 d Force = 0.0000000E+00[ 0.000E+00, 0.000E+00]  d Ewald  =-0.1381851E+01 0.138E+01

 reached required accuracy - stopping structural energy minimisation

 total charge

[...]

 magnetization (x)

# of ion       s       p       d       tot
    1        0.000   0.000   0.000   0.000
    2        0.000   0.000   0.000   0.000
    3        0.000   0.000   0.000   0.000
    4        0.000   0.000   0.000   0.000
    5        0.000   0.000   0.000   0.000
    6        0.000   0.000   0.000   0.000
    7        0.000   0.000   0.000   0.000
    8        0.000   0.000   0.000   0.000
    9        0.000   0.000   0.000   0.000
   10        0.000   0.000   0.000   0.000
   11        0.000   0.000   0.000   0.000
   12        0.000   0.000   0.000   0.000
tot          0.000   0.000   0.000   0.000

 BZINTS: Fermi energy:    0.134702;   80.000000 electrons
         Band energy:-0.115197E+04;  BLOECHL correction:   -0.000000