 vasp.6.3.2 27Jun22 (build Mar 25 2024 10:42:18) complex
 executed on             LinuxGNU date 2024.03.26  10:57:42

 INCAR:
   ISTART = 0
   ICHARG = 2
   PREC = Accurate
   IBRION = -1
   EDIFF = 0.000000001
   EDIFFG = -0.0005
   NSW = 0
   NELM = 100
   ENCUT = 520
   ISMEAR = -5
   SIGMA = 0.05
   ISPIN = 2
   ISYM = 0
   LWAVE = False
   LCHARG = False
   LASPH = True
   LORBIT = 11
   ADDGRID = TRUE

 POTCAR:    PAW_PBE Na_pv 19Sep2006
 POTCAR:    PAW_PBE S 06Sep2000
|           W    W    AA    RRRRR   N    N  II  N    N   GGGG   !!!           |
|           W    W   A  A   R    R  NN   N  II  NN   N  G    G  !!!           |
|           W    W  A    A  R    R  N N  N  II  N N  N  G       !!!           |
|           W WW W  AAAAAA  RRRRR   N  N N  II  N  N N  G  GGG   !            |
|           WW  WW  A    A  R   R   N   NN  II  N   NN  G    G                |
|           W    W  A    A  R    R  N    N  II  N    N   GGGG   !!!           |
|     You use a magnetic or noncollinear calculation, but did not specify     |
|     the initial magnetic moment with the MAGMOM tag. Note that a            |
|     default of 1 will be used for all atoms. This ferromagnetic setup       |
|     may break the symmetry of the crystal, in particular it may rule        |
|     out finding an antiferromagnetic solution. Thence, we recommend         |
|     setting the initial magnetic moment manually or verifying carefully     |
|     that this magnetic setup is desired.                                    |

   TITEL  = PAW_PBE Na_pv 19Sep2006
   POMASS =   22.990; ZVAL   =    7.000    mass and valenz
   ENMAX  =  259.561; ENMIN  =  194.671 eV

   TITEL  = PAW_PBE S 06Sep2000
   POMASS =   32.066; ZVAL   =    6.000    mass and valenz
   ENMAX  =  258.689; ENMIN  =  194.016 eV

  PAW_PBE Na_pv 19Sep2006               :
  PAW_PBE S 06Sep2000                   :

 POSCAR: generated by phonopy
  positions in direct lattice
 exchange correlation table for  LEXCH =        8
   RHO(1)=    0.500       N(1)  =     2000
   RHO(2)=  100.500       N(2)  =     4000

 ion  position               nearest neighbor table
   1  0.126  0.125  0.125-
   2  0.625  0.125  0.125-
   3  0.125  0.625  0.125-
   4  0.625  0.625  0.125-
   5  0.125  0.125  0.625-
   6  0.625  0.125  0.625-
   7  0.125  0.625  0.625-
   8  0.625  0.625  0.625-
   9  0.125  0.375  0.125-
  10  0.625  0.375  0.125-
  11  0.125  0.875  0.125-
  12  0.625  0.875  0.125-
  13  0.125  0.375  0.625-
  14  0.625  0.375  0.625-
  15  0.125  0.875  0.625-
  16  0.625  0.875  0.625-
  17  0.125  0.375  0.375-
  18  0.625  0.375  0.375-
  19  0.125  0.875  0.375-
  20  0.625  0.875  0.375-
  21  0.125  0.375  0.875-
  22  0.625  0.375  0.875-
  23  0.125  0.875  0.875-
  24  0.625  0.875  0.875-
  25  0.125  0.125  0.375-
  26  0.625  0.125  0.375-
  27  0.125  0.625  0.375-
  28  0.625  0.625  0.375-
  29  0.125  0.125  0.875-
  30  0.625  0.125  0.875-
  31  0.125  0.625  0.875-
  32  0.625  0.625  0.875-
  33  0.375  0.125  0.375-
  34  0.875  0.125  0.375-
  35  0.375  0.625  0.375-
  36  0.875  0.625  0.375-
  37  0.375  0.125  0.875-
  38  0.875  0.125  0.875-
  39  0.375  0.625  0.875-
  40  0.875  0.625  0.875-
  41  0.375  0.375  0.375-
  42  0.875  0.375  0.375-
  43  0.375  0.875  0.375-
  44  0.875  0.875  0.375-
  45  0.375  0.375  0.875-
  46  0.875  0.375  0.875-
  47  0.375  0.875  0.875-
  48  0.875  0.875  0.875-
  49  0.375  0.375  0.125-
  50  0.875  0.375  0.125-
  51  0.375  0.875  0.125-
  52  0.875  0.875  0.125-
  53  0.375  0.375  0.625-
  54  0.875  0.375  0.625-
  55  0.375  0.875  0.625-
  56  0.875  0.875  0.625-
  57  0.375  0.125  0.125-
  58  0.875  0.125  0.125-
  59  0.375  0.625  0.125-
  60  0.875  0.625  0.125-
[...]
  82  0.750  0.000  0.250-
  83  0.250  0.500  0.250-
  84  0.750  0.500  0.250-
  85  0.250  0.000  0.750-
  86  0.750  0.000  0.750-
  87  0.250  0.500  0.750-
  88  0.750  0.500  0.750-
  89  0.250  0.250  0.000-
  90  0.750  0.250  0.000-
  91  0.250  0.750  0.000-
  92  0.750  0.750  0.000-
  93  0.250  0.250  0.500-
  94  0.750  0.250  0.500-
  95  0.250  0.750  0.500-
  96  0.750  0.750  0.500-

IMPORTANT INFORMATION: All symmetrisations will be switched off!
NOSYMM: (Re-)initialisation of all symmetry stuff for point group C_1.

                                     Primitive cell

  volume of cell :    2267.8288

  direct lattice vectors                    reciprocal lattice vectors
    13.138226862  0.000000000  0.000000000     0.076113772 -0.000000000  0.000000000
     0.000000000 13.138226862  0.000000000     0.000000000  0.076113772  0.000000000
     0.000000000  0.000000000 13.138226862    -0.000000000 -0.000000000  0.076113772

  length of vectors
    13.138226862 13.138226862 13.138226862     0.076113772  0.076113772  0.076113772

  position of ions in fractional coordinates (direct lattice)
     0.125761138  0.125000000  0.125000000
     0.625000000  0.125000000  0.125000000
     0.125000000  0.625000000  0.125000000
     0.625000000  0.625000000  0.125000000
     0.125000000  0.125000000  0.625000000
     0.625000000  0.125000000  0.625000000
     0.125000000  0.625000000  0.625000000
     0.625000000  0.625000000  0.625000000
     0.125000000  0.375000000  0.125000000
     0.625000000  0.375000000  0.125000000
     0.125000000  0.875000000  0.125000000
     0.625000000  0.875000000  0.125000000
     0.125000000  0.375000000  0.625000000
     0.625000000  0.375000000  0.625000000
     0.125000000  0.875000000  0.625000000
     0.625000000  0.875000000  0.625000000
     0.125000000  0.375000000  0.375000000
     0.625000000  0.375000000  0.375000000
     0.125000000  0.875000000  0.375000000
     0.625000000  0.875000000  0.375000000
     0.125000000  0.375000000  0.875000000
     0.625000000  0.375000000  0.875000000
     0.125000000  0.875000000  0.875000000
     0.625000000  0.875000000  0.875000000
     0.125000000  0.125000000  0.375000000
     0.625000000  0.125000000  0.375000000
     0.125000000  0.625000000  0.375000000
     0.625000000  0.625000000  0.375000000
     0.125000000  0.125000000  0.875000000
     0.625000000  0.125000000  0.875000000
     0.125000000  0.625000000  0.875000000
     0.625000000  0.625000000  0.875000000
     0.375000000  0.125000000  0.375000000
     0.875000000  0.125000000  0.375000000
     0.375000000  0.625000000  0.375000000
     0.875000000  0.625000000  0.375000000
     0.375000000  0.125000000  0.875000000
     0.875000000  0.125000000  0.875000000
     0.375000000  0.625000000  0.875000000
     0.875000000  0.625000000  0.875000000
     0.375000000  0.375000000  0.375000000
     0.875000000  0.375000000  0.375000000
     0.375000000  0.875000000  0.375000000
     0.875000000  0.875000000  0.375000000
     0.375000000  0.375000000  0.875000000
     0.875000000  0.375000000  0.875000000
     0.375000000  0.875000000  0.875000000
     0.875000000  0.875000000  0.875000000
     0.375000000  0.375000000  0.125000000
     0.875000000  0.375000000  0.125000000
     0.375000000  0.875000000  0.125000000
     0.875000000  0.875000000  0.125000000
     0.375000000  0.375000000  0.625000000
     0.875000000  0.375000000  0.625000000
     0.375000000  0.875000000  0.625000000
     0.875000000  0.875000000  0.625000000
     0.375000000  0.125000000  0.125000000
     0.875000000  0.125000000  0.125000000
     0.375000000  0.625000000  0.125000000
     0.875000000  0.625000000  0.125000000
[...]
     0.750000000  0.000000000  0.250000000
     0.250000000  0.500000000  0.250000000
     0.750000000  0.500000000  0.250000000
     0.250000000  0.000000000  0.750000000
     0.750000000  0.000000000  0.750000000
     0.250000000  0.500000000  0.750000000
     0.750000000  0.500000000  0.750000000
     0.250000000  0.250000000  1.000000000
     0.750000000  0.250000000  1.000000000
     0.250000000  0.750000000  1.000000000
     0.750000000  0.750000000  1.000000000
     0.250000000  0.250000000  0.500000000
     0.750000000  0.250000000  0.500000000
     0.250000000  0.750000000  0.500000000
     0.750000000  0.750000000  0.500000000

  ion indices of the primitive-cell ions
   primitive index   ion index
                 1           1
                 2           2
                 3           3
                 4           4
                 5           5
                 6           6
                 7           7
                 8           8
                 9           9
                10          10
                11          11
                12          12
                13          13
                14          14
                15          15
                16          16
                17          17
                18          18
                19          19
                20          20
                21          21
                22          22
                23          23
                24          24
                25          25
                26          26
                27          27
                28          28
                29          29
                30          30
                31          31
                32          32
                33          33
                34          34
                35          35
                36          36
                37          37
                38          38
                39          39
                40          40
                41          41
                42          42
                43          43
                44          44
                45          45
                46          46
                47          47
                48          48
                49          49
                50          50
                51          51
                52          52
                53          53
                54          54
                55          55
                56          56
                57          57
                58          58
                59          59
                60          60
[...]
                82          82
                83          83
                84          84
                85          85
                86          86
                87          87
                88          88
                89          89
                90          90
                91          91
                92          92
                93          93
                94          94
                95          95
                96          96

 KPOINTS: pymatgen with grid density = 694 / numbe

Automatic generation of k-mesh.
 Grid dimensions read from file:
 generate k-points for:    3    3    3

 Generating k-lattice:

  Cartesian coordinates                     Fractional coordinates (reciprocal lattice)
     0.025371257 -0.000000000  0.000000000     0.333333333  0.000000000  0.000000000
     0.000000000  0.025371257  0.000000000     0.000000000  0.333333333  0.000000000
    -0.000000000 -0.000000000  0.025371257    -0.000000000 -0.000000000  0.333333333

  Length of vectors
     0.025371257  0.025371257  0.025371257

  Shift w.r.t. Gamma in fractional coordinates (k-lattice)
[...]
   0.181E+00 0.512E-02 0.864E-03   -.190E+00 -.266E-14 -.897E-03   0.751E-02 -.463E-02 0.235E-04   0.844E-08 -.584E-07 0.599E-09
   -.561E-01 -.101E-02 -.870E-04   0.581E-01 0.231E-13 0.927E-04   -.170E-02 0.905E-03 -.500E-05   -.286E-07 -.149E-07 -.899E-08
   0.210E-01 -.289E-03 0.249E-04   -.226E-01 -.444E-14 -.234E-04   0.138E-02 0.184E-03 -.134E-05   0.222E-07 0.343E-07 -.419E-09
   -.183E-01 -.373E-03 -.173E-04   0.193E-01 -.213E-13 0.161E-04   -.886E-03 0.343E-03 0.107E-05   -.399E-07 0.265E-08 0.242E-07
   0.181E+00 -.512E-02 -.864E-03   -.190E+00 0.209E-13 0.897E-03   0.751E-02 0.463E-02 -.235E-04   -.796E-08 0.316E-07 0.794E-08
   -.561E-01 0.101E-02 0.870E-04   0.581E-01 0.888E-15 -.927E-04   -.170E-02 -.905E-03 0.497E-05   0.257E-07 -.972E-08 -.215E-07
   0.210E-01 0.289E-03 -.249E-04   -.226E-01 -.115E-13 0.234E-04   0.138E-02 -.184E-03 0.132E-05   -.802E-08 -.897E-08 0.264E-07
   -.183E-01 0.373E-03 0.173E-04   0.193E-01 -.799E-14 -.161E-04   -.886E-03 -.343E-03 -.105E-05   -.641E-08 0.178E-07 -.209E-07
   -.484E-01 0.240E-02 -.949E-01   0.513E-01 -.124E-13 0.983E-01   -.242E-02 -.214E-02 -.280E-02   0.205E-07 0.104E-07 -.194E-07
   -.486E-01 0.241E-02 0.945E-01   0.515E-01 0.124E-13 -.978E-01   -.242E-02 -.215E-02 0.280E-02   -.153E-07 -.445E-07 -.174E-07
   -.129E-02 -.327E-03 -.815E-02   0.159E-02 -.249E-13 0.809E-02   -.249E-03 0.259E-03 0.608E-04   0.162E-07 0.578E-07 0.391E-07
   -.139E-02 -.328E-03 0.815E-02   0.169E-02 0.000E+00 -.808E-02   -.250E-03 0.261E-03 -.615E-04   0.826E-08 0.424E-07 0.414E-07
   -.484E-01 -.240E-02 0.949E-01   0.513E-01 -.666E-14 -.983E-01   -.242E-02 0.214E-02 0.280E-02   0.542E-08 -.130E-07 -.253E-07
   -.486E-01 -.241E-02 -.945E-01   0.515E-01 0.000E+00 0.978E-01   -.242E-02 0.215E-02 -.280E-02   -.302E-07 0.398E-08 0.328E-07
   -.129E-02 0.327E-03 0.815E-02   0.159E-02 -.138E-13 -.809E-02   -.249E-03 -.260E-03 -.607E-04   0.125E-07 -.955E-08 -.221E-07
   -.139E-02 0.328E-03 -.815E-02   0.169E-02 0.115E-13 0.808E-02   -.250E-03 -.261E-03 0.615E-04   0.551E-08 -.638E-08 0.907E-08
   -.132E-01 -.325E-01 -.325E-01   0.129E-01 0.331E-01 0.331E-01   0.264E-03 -.439E-03 -.439E-03   0.262E-07 -.241E-07 -.699E-08
   -.882E-02 0.300E-01 0.300E-01   0.131E-01 -.330E-01 -.330E-01   -.383E-02 0.271E-02 0.271E-02   -.347E-07 0.146E-07 0.307E-07
   -.865E-02 0.301E-01 -.301E-01   0.129E-01 -.331E-01 0.331E-01   -.381E-02 0.269E-02 -.269E-02   -.224E-07 -.385E-07 -.575E-08
   -.134E-01 -.324E-01 0.324E-01   0.131E-01 0.330E-01 -.330E-01   0.260E-03 -.435E-03 0.435E-03   0.518E-08 -.128E-07 0.134E-08
   -.865E-02 -.301E-01 0.301E-01   0.129E-01 0.331E-01 -.331E-01   -.381E-02 -.269E-02 0.269E-02   -.212E-07 0.661E-08 -.314E-07
   -.134E-01 0.324E-01 -.324E-01   0.131E-01 -.330E-01 0.330E-01   0.260E-03 0.435E-03 -.435E-03   0.295E-07 0.655E-08 0.446E-10
   -.132E-01 0.325E-01 0.325E-01   0.129E-01 -.331E-01 -.331E-01   0.264E-03 0.439E-03 0.439E-03   -.179E-07 0.208E-07 -.218E-07
   -.882E-02 -.300E-01 -.300E-01   0.131E-01 0.330E-01 0.330E-01   -.383E-02 -.271E-02 -.271E-02   -.906E-07 -.175E-07 0.171E-07
   -.484E-01 -.949E-01 0.240E-02   0.513E-01 0.983E-01 -.142E-13   -.242E-02 -.280E-02 -.214E-02   0.283E-08 0.231E-07 0.179E-08
   -.486E-01 0.945E-01 0.241E-02   0.515E-01 -.978E-01 0.275E-13   -.242E-02 0.280E-02 -.215E-02   0.366E-07 -.384E-07 -.263E-07
   -.484E-01 0.949E-01 -.240E-02   0.513E-01 -.983E-01 0.115E-13   -.242E-02 0.280E-02 0.214E-02   -.238E-08 -.161E-07 0.245E-07
   -.486E-01 -.945E-01 -.241E-02   0.515E-01 0.978E-01 0.178E-13   -.242E-02 -.280E-02 0.215E-02   0.109E-10 0.271E-07 -.133E-07
   -.129E-02 -.815E-02 -.327E-03   0.159E-02 0.809E-02 -.355E-14   -.249E-03 0.607E-04 0.259E-03   -.225E-07 0.587E-07 0.359E-07
   -.139E-02 0.815E-02 -.328E-03   0.169E-02 -.808E-02 0.711E-14   -.250E-03 -.615E-04 0.261E-03   -.195E-07 -.892E-08 0.103E-07
   -.129E-02 0.815E-02 0.327E-03   0.159E-02 -.809E-02 0.187E-13   -.249E-03 -.608E-04 -.259E-03   0.277E-08 -.580E-07 -.178E-07
   -.139E-02 -.815E-02 0.328E-03   0.169E-02 0.808E-02 0.000E+00   -.250E-03 0.614E-04 -.261E-03   -.259E-07 -.207E-07 -.146E-07
   -.398E+00 -.155E-07 -.950E-06   0.421E+00 0.244E-13 -.124E-13   -.164E-01 0.579E-07 -.960E-07   0.388E-07 0.523E-08 0.172E-07
   -.395E+00 -.153E-08 -.890E-06   0.417E+00 0.311E-13 -.293E-13   -.162E-01 0.443E-07 -.109E-06   0.698E-07 0.198E-08 -.289E-07
   -.366E-02 0.162E-07 0.437E-08   0.352E-02 0.666E-14 -.222E-13   0.158E-03 0.428E-07 -.428E-08   -.775E-08 -.117E-07 -.522E-08
   -.380E-02 -.182E-07 0.294E-07   0.365E-02 0.240E-13 -.178E-13   0.160E-03 0.651E-07 -.497E-08   0.157E-07 -.145E-08 -.250E-07
[...]
   0.215E-01 -.247E-01 -.949E-02   -.222E-01 0.249E-01 0.992E-02   0.109E-02 -.304E-03 -.689E-03   -.833E-07 0.971E-08 0.145E-08
   -.217E-01 0.116E-01 0.536E-02   0.224E-01 -.120E-01 -.536E-02   -.111E-02 0.572E-03 0.468E-05   -.938E-07 -.461E-09 0.869E-08
   0.215E-01 0.949E-02 0.247E-01   -.222E-01 -.992E-02 -.249E-01   0.109E-02 0.689E-03 0.304E-03   0.172E-07 -.451E-07 0.852E-07
   -.217E-01 -.536E-02 -.116E-01   0.224E-01 0.536E-02 0.120E-01   -.111E-02 -.468E-05 -.572E-03   -.155E-07 0.110E-07 0.814E-07
   0.109E-01 -.483E-02 0.483E-02   -.112E-01 0.537E-02 -.537E-02   0.403E-03 -.843E-03 0.843E-03   0.372E-07 -.616E-07 -.986E-07
   -.109E-01 0.386E-02 -.386E-02   0.112E-01 -.388E-02 0.388E-02   -.403E-03 0.298E-04 -.298E-04   0.440E-08 0.753E-08 -.685E-08
   -.140E-01 -.261E+00 0.261E+00   0.101E-01 0.262E+00 -.262E+00   0.818E-02 0.715E-03 -.715E-03   -.775E-07 0.688E-07 -.596E-07
   -.762E-01 0.244E-01 -.244E-01   0.776E-01 -.248E-01 0.248E-01   -.222E-02 0.728E-03 -.728E-03   0.579E-07 -.907E-07 -.214E-07
   0.215E-01 0.247E-01 0.949E-02   -.222E-01 -.249E-01 -.992E-02   0.109E-02 0.304E-03 0.689E-03   -.446E-07 -.271E-07 0.435E-08
   -.217E-01 -.116E-01 -.536E-02   0.224E-01 0.120E-01 0.536E-02   -.111E-02 -.572E-03 -.465E-05   0.133E-07 0.911E-07 -.766E-07
   0.215E-01 -.949E-02 -.247E-01   -.222E-01 0.992E-02 0.249E-01   0.109E-02 -.689E-03 -.304E-03   -.490E-07 0.313E-07 -.272E-07
   -.217E-01 0.536E-02 0.116E-01   0.224E-01 -.536E-02 -.120E-01   -.111E-02 0.468E-05 0.571E-03   0.112E-07 -.285E-08 0.500E-07
   0.109E-01 0.483E-02 -.483E-02   -.112E-01 -.537E-02 0.537E-02   0.403E-03 0.843E-03 -.843E-03   0.378E-07 -.212E-07 -.156E-07
   -.109E-01 -.386E-02 0.386E-02   0.112E-01 0.388E-02 -.388E-02   -.403E-03 -.298E-04 0.298E-04   -.101E-08 -.770E-08 -.387E-07
   0.293E-01 0.204E-07 0.821E-07   0.263E-12 -.132E-13 0.153E-12   -.293E-01 0.515E-08 -.843E-08   -.646E-07 0.158E-07 0.101E-06

 POSITION                                       TOTAL-FORCE (eV/Angst)
      1.65228      1.64228      1.64228        -0.023413     -0.000000      0.000001
      8.21139      1.64228      1.64228         0.000436     -0.000000      0.000001
      1.64228      8.21139      1.64228        -0.000180     -0.000000      0.000000
      8.21139      8.21139      1.64228         0.000155     -0.000000      0.000000
      1.64228      1.64228      8.21139        -0.000180     -0.000000     -0.000000
      8.21139      1.64228      8.21139         0.000155     -0.000000     -0.000000
      1.64228      8.21139      8.21139        -0.000260     -0.000000      0.000000
      8.21139      8.21139      8.21139         0.000094     -0.000000      0.000000
      1.64228      4.92684      1.64228        -0.001684     -0.000009      0.000486
      8.21139      4.92684      1.64228         0.000282      0.000001     -0.000104
      1.64228     11.49595      1.64228        -0.001684      0.000009     -0.000486
      8.21139     11.49595      1.64228         0.000282     -0.000001      0.000104
      1.64228      4.92684      8.21139        -0.000219      0.000000     -0.000104
      8.21139      4.92684      8.21139         0.000124     -0.000000     -0.000030
      1.64228     11.49595      8.21139        -0.000219     -0.000000      0.000104
      8.21139     11.49595      8.21139         0.000124      0.000000      0.000030
      1.64228      4.92684      4.92684        -0.000704     -0.000262     -0.000262
      8.21139      4.92684      4.92684         0.000207      0.000068      0.000068
      1.64228     11.49595      4.92684        -0.000703     -0.000261      0.000261
      8.21139     11.49595      4.92684         0.000206      0.000067     -0.000067
      1.64228      4.92684     11.49595        -0.000703      0.000261     -0.000261
      8.21139      4.92684     11.49595         0.000206     -0.000067      0.000067
      1.64228     11.49595     11.49595        -0.000704      0.000262      0.000262
      8.21139     11.49595     11.49595         0.000207     -0.000068     -0.000068
      1.64228      1.64228      4.92684        -0.001684      0.000486     -0.000009
      8.21139      1.64228      4.92684         0.000282     -0.000104      0.000001
      1.64228      8.21139      4.92684        -0.000219     -0.000104      0.000000
      8.21139      8.21139      4.92684         0.000124     -0.000030     -0.000000
      1.64228      1.64228     11.49595        -0.001684     -0.000486      0.000009
      8.21139      1.64228     11.49595         0.000282      0.000104     -0.000001
      1.64228      8.21139     11.49595        -0.000219      0.000104     -0.000000
      8.21139      8.21139     11.49595         0.000124      0.000030      0.000000
      4.92684      1.64228      4.92684         0.000463      0.000260      0.000574
     11.49595      1.64228      4.92684         0.000463      0.000263     -0.000571
      4.92684      8.21139      4.92684         0.000047     -0.000067     -0.000000
     11.49595      8.21139      4.92684         0.000047     -0.000068      0.000000
      4.92684      1.64228     11.49595         0.000463     -0.000260     -0.000574
     11.49595      1.64228     11.49595         0.000463     -0.000263      0.000571
      4.92684      8.21139     11.49595         0.000047      0.000067      0.000000
     11.49595      8.21139     11.49595         0.000047      0.000067     -0.000000
      4.92684      4.92684      4.92684        -0.000021      0.000115      0.000115
     11.49595      4.92684      4.92684         0.000483     -0.000311     -0.000311
      4.92684     11.49595      4.92684         0.000482     -0.000310      0.000310
     11.49595     11.49595      4.92684        -0.000021      0.000114     -0.000114
      4.92684      4.92684     11.49595         0.000482      0.000310     -0.000310
     11.49595      4.92684     11.49595        -0.000021     -0.000114      0.000114
      4.92684     11.49595     11.49595        -0.000021     -0.000115     -0.000115
     11.49595     11.49595     11.49595         0.000483      0.000311      0.000311
      4.92684      4.92684      1.64228         0.000463      0.000574      0.000260
     11.49595      4.92684      1.64228         0.000463     -0.000571      0.000263
      4.92684     11.49595      1.64228         0.000463     -0.000574     -0.000260
     11.49595     11.49595      1.64228         0.000463      0.000571     -0.000263
      4.92684      4.92684      8.21139         0.000047     -0.000000     -0.000067
     11.49595      4.92684      8.21139         0.000047      0.000000     -0.000068
      4.92684     11.49595      8.21139         0.000047      0.000000      0.000067
     11.49595     11.49595      8.21139         0.000047     -0.000000      0.000068
      4.92684      1.64228      1.64228         0.005760      0.000000     -0.000001
     11.49595      1.64228      1.64228         0.005671      0.000000     -0.000001
      4.92684      8.21139      1.64228         0.000013      0.000000     -0.000000
     11.49595      8.21139      1.64228         0.000013      0.000000     -0.000000
[...]
      9.85367      0.00000      3.28456        -0.000840     -0.000280      0.000280
      3.28456      6.56911      3.28456         0.000402     -0.000120     -0.000259
      9.85367      6.56911      3.28456        -0.000411      0.000213      0.000003
      3.28456      0.00000      9.85367         0.000402      0.000259      0.000120
      9.85367      0.00000      9.85367        -0.000411     -0.000003     -0.000213
      3.28456      6.56911      9.85367         0.000149     -0.000305      0.000305
      9.85367      6.56911      9.85367        -0.000149      0.000011     -0.000011
      3.28456      3.28456      0.00000         0.004297      0.001720     -0.001720
      9.85367      3.28456      0.00000        -0.000840      0.000279     -0.000280
      3.28456      9.85367      0.00000         0.000402      0.000120      0.000259
      9.85367      9.85367      0.00000        -0.000411     -0.000213     -0.000003
      3.28456      3.28456      6.56911         0.000402     -0.000259     -0.000120
      9.85367      3.28456      6.56911        -0.000411      0.000003      0.000213
      3.28456      9.85367      6.56911         0.000149      0.000305     -0.000305
      9.85367      9.85367      6.56911        -0.000149     -0.000011      0.000011
    total drift:                                0.000029      0.000000      0.000000

  FREE ENERGIE OF THE ION-ELECTRON SYSTEM (eV)
  free  energy   TOTEN  =      -319.24504323 eV

  energy  without entropy=     -319.24504323  energy(sigma->0) =     -319.24504323

 total charge

[...]

 magnetization (x)

# of ion       s       p       d       tot
    1        0.000  -0.000   0.000   0.000
    2        0.000  -0.000   0.000   0.000
    3        0.000  -0.000   0.000   0.000
    4        0.000   0.000   0.000   0.000
    5        0.000  -0.000   0.000   0.000
    6        0.000   0.000   0.000   0.000
    7        0.000   0.000   0.000   0.000
    8        0.000   0.000   0.000   0.000
    9        0.000  -0.000   0.000   0.000
   10        0.000   0.000   0.000   0.000
   11        0.000   0.000   0.000   0.000
   12        0.000  -0.000   0.000   0.000
   13        0.000  -0.000   0.000   0.000
   14        0.000  -0.000   0.000   0.000
   15        0.000   0.000   0.000   0.000
   16        0.000  -0.000   0.000   0.000
   17        0.000  -0.000   0.000   0.000
   18        0.000   0.000   0.000   0.000
   19        0.000   0.000   0.000   0.000
   20        0.000  -0.000   0.000   0.000
   21        0.000  -0.000   0.000   0.000
   22        0.000   0.000   0.000   0.000
   23        0.000  -0.000   0.000   0.000
   24        0.000   0.000   0.000   0.000
   25        0.000  -0.000   0.000   0.000
   26        0.000  -0.000   0.000   0.000
   27        0.000  -0.000   0.000   0.000
   28        0.000   0.000   0.000   0.000
   29        0.000  -0.000   0.000   0.000
   30        0.000  -0.000   0.000   0.000
   31        0.000   0.000   0.000   0.000
   32        0.000   0.000   0.000   0.000
   33        0.000  -0.000   0.000   0.000
   34        0.000   0.000   0.000   0.000
   35        0.000   0.000   0.000   0.000
   36        0.000  -0.000   0.000   0.000
   37        0.000   0.000   0.000   0.000
   38        0.000   0.000   0.000   0.000
   39        0.000  -0.000   0.000   0.000
   40        0.000  -0.000   0.000   0.000
   41        0.000   0.000   0.000   0.000
   42        0.000  -0.000   0.000   0.000
   43        0.000  -0.000   0.000   0.000
   44        0.000   0.000   0.000   0.000
   45        0.000  -0.000   0.000   0.000
   46        0.000   0.000   0.000   0.000
   47        0.000   0.000   0.000   0.000
   48        0.000   0.000   0.000   0.000
   49        0.000  -0.000   0.000   0.000
   50        0.000  -0.000   0.000   0.000
   51        0.000  -0.000   0.000   0.000
   52        0.000  -0.000   0.000   0.000
   53        0.000   0.000   0.000   0.000
   54        0.000  -0.000   0.000   0.000
   55        0.000   0.000   0.000   0.000
   56        0.000   0.000   0.000   0.000
   57        0.000  -0.000   0.000   0.000
   58        0.000  -0.000   0.000   0.000
   59        0.000   0.000   0.000   0.000
   60        0.000  -0.000   0.000   0.000
[...]
   82        0.000   0.000   0.000   0.000
   83        0.000   0.000   0.000   0.000
   84        0.000   0.000   0.000   0.000
   85        0.000   0.000   0.000   0.000
   86        0.000   0.000   0.000   0.000
   87        0.000   0.000   0.000   0.000
   88        0.000   0.000   0.000   0.000
   89        0.000   0.000   0.000   0.000
   90        0.000   0.000   0.000   0.000
   91        0.000   0.000   0.000   0.000
   92        0.000   0.000   0.000   0.000
   93        0.000   0.000   0.000   0.000
   94        0.000   0.000   0.000   0.000
   95        0.000   0.000   0.000   0.000
   96        0.000   0.000   0.000   0.000
tot          0.000   0.000   0.000   0.000

 BZINTS: Fermi energy:    0.134407;  640.000000 electrons
         Band energy:-0.921577E+04;  BLOECHL correction:   -0.000000