 vasp.5.4.4.18Apr17-6-g9f103f2a35 (build May 18 2017 07:58:28) gamma-only

 executed on             LinuxIFC date 2019.06.26  16:26:24

 INCAR:
 POTCAR:    PAW_PBE Li_sv 10Sep2004
 POTCAR:    PAW_PBE La 06Sep2000
 POTCAR:    PAW_PBE Zr_sv 04Jan2005
 POTCAR:    PAW_PBE O 08Apr2002

 POTCAR:    PAW_PBE Li_sv 10Sep2004
   VRHFIN =Li: 1s2s2p

   TITEL  = PAW_PBE Li_sv 10Sep2004
   POMASS =    7.010; ZVAL   =    3.000    mass and valenz
   ENMAX  =  499.034; ENMIN  =  374.276 eV

 POTCAR:    PAW_PBE La 06Sep2000
   VRHFIN =La : [core=Kr4d]

   TITEL  = PAW_PBE La 06Sep2000
   POMASS =  138.900; ZVAL   =   11.000    mass and valenz
   ENMAX  =  219.292; ENMIN  =  164.469 eV

 POTCAR:    PAW_PBE Zr_sv 04Jan2005
   VRHFIN =Zr: 4s4p5s4d

   TITEL  = PAW_PBE Zr_sv 04Jan2005
   POMASS =   91.224; ZVAL   =   12.000    mass and valenz
   ENMAX  =  229.898; ENMIN  =  172.424 eV

 POTCAR:    PAW_PBE O 08Apr2002
   VRHFIN =O: s2p4

   TITEL  = PAW_PBE O 08Apr2002
   POMASS =   16.000; ZVAL   =    6.000    mass and valenz
   ENMAX  =  400.000; ENMIN  =  300.000 eV

 Optimization of the real space projectors (new method)

 maximal supplied QI-value         = 22.11
 optimisation between [QCUT,QGAM] = [ 11.50, 23.22] = [ 37.02,150.92] Ry
 Optimized for a Real-space Cutoff    1.08 Angstroem

   l    n(q)    QCUT    max X(q) W(low)/X(q) W(high)/X(q)  e(spline)
   0      7    11.497    10.506    0.36E-04    0.62E-04    0.14E-07
   0      7    11.497     8.367    0.65E-04    0.14E-03    0.28E-07
   1      7    11.497     8.983    0.21E-03    0.43E-03    0.90E-07
 Optimization of the real space projectors (new method)

[...]

   l    n(q)    QCUT    max X(q) W(low)/X(q) W(high)/X(q)  e(spline)
   0     11    11.641    12.107    0.25E-04    0.86E-05    0.10E-06
   0     11    11.641     9.948    0.34E-04    0.18E-04    0.23E-06
   1     11    11.641     3.563    0.17E-04    0.12E-04    0.38E-07
   1     11    11.641     4.524    0.18E-03    0.80E-04    0.37E-06
   2     10    11.641    87.261    0.40E-04    0.20E-04    0.23E-06
   2     10    11.641    70.950    0.40E-04    0.20E-04    0.23E-06
 Optimization of the real space projectors (new method)

 maximal supplied QI-value         = 24.76
 optimisation between [QCUT,QGAM] = [ 11.64, 23.27] = [ 37.91,151.63] Ry
 Optimized for a Real-space Cutoff    1.14 Angstroem

   l    n(q)    QCUT    max X(q) W(low)/X(q) W(high)/X(q)  e(spline)
   0      8    11.635    20.381    0.10E-03    0.33E-03    0.24E-06
   0      8    11.635    15.268    0.11E-03    0.35E-03    0.26E-06
   1      7    11.635     5.964    0.24E-03    0.31E-03    0.30E-06
   1      7    11.635     5.382    0.22E-03    0.25E-03    0.26E-06
  PAW_PBE Li_sv 10Sep2004               :
  PAW_PBE La 06Sep2000                  :
  PAW_PBE Zr_sv 04Jan2005               :
  PAW_PBE O 08Apr2002                   :

 POSCAR: Li28 La12 Zr8 O48
  positions in direct lattice
  velocities in cartesian coordinates
 exchange correlation table for  LEXCH =        8
   RHO(1)=    0.500       N(1)  =     2000
   RHO(2)=  100.500       N(2)  =     4000

 ion  position               nearest neighbor table
   1  0.390  0.658  0.384-  94 1.87  53 2.02  57 2.09  78 2.13   4 2.49  27 2.50  24 2.53  45 2.86
                            29 3.05  42 3.17
   2  0.368  0.241  0.622-  56 1.91  54 1.91  95 1.91  91 1.91  31 3.14
   3  0.879  0.489  0.715-  72 1.84  81 1.99  77 2.03  60 2.25  28 2.56  48 2.92  35 3.04  44 3.14

   4  0.618  0.741  0.372-  71 1.90  78 1.90  80 1.90  67 1.90  11 2.49   1 2.49  19 2.49  23 2.49

   5  0.772  0.002  0.111-  90 1.87  55 2.02  59 2.09  82 2.13   7 2.49  25 2.50  12 2.52  46 2.86
                            30 3.05  41 3.18
   6  0.213  0.994  0.886-  66 1.84  79 1.99  83 2.03  58 2.26  26 2.56  46 2.92  36 3.04  41 3.14

[...]

  10  0.095  0.481  0.266-  96 1.87  57 2.02  53 2.09  84 2.13   7 2.49  24 2.50  27 2.53  48 2.86
                            29 3.05  44 3.18
  11  0.762  0.981  0.600-  52 1.87  86 2.02  85 2.09  67 2.13   4 2.49  18 2.50  20 2.53  42 2.86
                            38 3.05  47 3.18
  12  0.563  0.745  0.960-  55 1.91  64 1.96  92 2.13  19 2.50   5 2.52  43 2.89  46 3.06  35 3.07

[...]

  19  0.713  0.825  0.228-  92 1.87  59 2.02  55 2.09  80 2.13   4 2.49  12 2.50  25 2.53  47 2.86
                            30 3.05  43 3.18
  20  0.810  0.238  0.707-  86 1.91  81 1.96  51 2.13  21 2.50  11 2.53  48 2.89  42 3.06  34 3.07

  21  0.880  0.158  0.895-  51 1.87  85 2.02  86 2.09  65 2.12   7 2.49  20 2.50  18 2.53  41 2.86
                            38 3.05  48 3.17
  22  0.724  0.325  0.217-  50 1.87  87 2.02  88 2.09  69 2.13   7 2.49   9 2.50  17 2.53  44 2.86
                            40 3.05  46 3.17
  23  0.606  0.502  0.277-  49 1.87  88 2.02  87 2.09  71 2.13   4 2.49  17 2.50   9 2.53  43 2.86
                            40 3.05  45 3.18
  24  0.283  0.599  0.534-  53 1.91  63 1.96  96 2.13  10 2.50   1 2.53  44 2.89  45 3.06  36 3.07

[...]

  28  0.606  0.323  0.609-  70 1.84  77 1.99  81 2.03  54 2.26   3 2.56  45 2.92  35 3.04  42 3.14

  29  0.243  0.361  0.117-  66 2.42  68 2.43  51 2.55  49 2.55  57 2.55  53 2.55  71 2.63  65 2.63
                             1 3.05  10 3.05  45 3.57  48 3.58  43 3.64  41 3.64
  30  0.743  0.122  0.377-  70 2.42  72 2.42  52 2.55  50 2.55  55 2.55  59 2.55  69 2.63  67 2.63
                            19 3.05   5 3.05  47 3.58  46 3.58  44 3.63  42 3.64
  31  0.118  0.241  0.372-  56 2.51  54 2.51  65 2.53  69 2.53  63 2.62  61 2.62  53 2.62  59 2.62
                             2 3.14  45 3.62  47 3.62  41 3.63  44 3.64
  32  0.368  0.117  0.247-  66 2.48  70 2.48  50 2.48  49 2.48  61 2.56  62 2.56  58 2.60  54 2.60
                            14 3.04   8 3.04   9 3.06  17 3.07  41 3.55  42 3.55  45 3.65  46 3.65
  33  0.368  0.741  0.122-  60 2.51  58 2.51  67 2.53  71 2.53  62 2.62  64 2.62  55 2.62  57 2.62
                            13 3.14  48 3.62  46 3.62  42 3.64  43 3.64
  34  0.117  0.366  0.747-  72 2.48  68 2.48  52 2.48  51 2.48  64 2.56  63 2.57  56 2.60  60 2.60
                            16 3.04  15 3.04  18 3.07  20 3.07  43 3.55  44 3.55  47 3.65  48 3.65
  35  0.743  0.617  0.873-  73 2.48  75 2.48  90 2.48  92 2.48  77 2.56  81 2.56  95 2.60  89 2.60
                            28 3.04   3 3.04  25 3.06  12 3.07  45 3.55  48 3.55  41 3.65  43 3.65
  36  0.243  0.866  0.622-  74 2.48  76 2.48  94 2.48  96 2.48  79 2.56  83 2.56  93 2.60  91 2.60
                             6 3.04  26 3.04  24 3.07  27 3.07  46 3.55  47 3.55  44 3.65  42 3.65
  37  0.868  0.741  0.622-  93 2.51  89 2.51  78 2.53  80 2.53  83 2.62  77 2.62  87 2.62  85 2.62
                            13 3.14  41 3.62  44 3.62  45 3.64  47 3.64
  38  0.613  0.861  0.747-  74 2.42  73 2.43  90 2.55  94 2.55  86 2.55  85 2.55  78 2.63  82 2.63
                            11 3.05  21 3.05  41 3.57  42 3.58  45 3.64  46 3.64
  39  0.617  0.241  0.872-  91 2.51  95 2.51  84 2.53  82 2.53  79 2.62  81 2.62  86 2.62  88 2.62
                            42 3.62  43 3.62  46 3.64  48 3.64
  40  0.873  0.622  0.247-  76 2.42  75 2.43  92 2.55  96 2.55  88 2.55  87 2.55  84 2.63  80 2.63
                            22 3.05  23 3.05  43 3.57  44 3.58  48 3.64  47 3.64
  41  0.992  0.991  0.997-  89 2.09  66 2.10  65 2.10  85 2.10  61 2.11  90 2.11  21 2.86  25 2.89
                            14 2.92  18 3.06   6 3.14   5 3.18  32 3.55  38 3.57  37 3.62  31 3.63
  42  0.492  0.991  0.498-  91 2.09  70 2.09  67 2.10  86 2.10  62 2.11  94 2.11  11 2.86  27 2.89
                             8 2.92  20 3.06  28 3.14   1 3.17  32 3.55  38 3.58  39 3.62  33 3.64
  43  0.493  0.492  0.997-  95 2.09  68 2.09  71 2.10  88 2.10  64 2.11  92 2.11  23 2.86  12 2.89
                            16 2.92   9 3.06  26 3.14  19 3.18  34 3.55  40 3.57  39 3.62  29 3.64
  44  0.993  0.492  0.498-  93 2.09  72 2.09  69 2.10  87 2.10  63 2.11  96 2.11  22 2.86  24 2.89
                            15 2.92  17 3.06   3 3.14  10 3.18  34 3.55  40 3.58  37 3.62  30 3.63
  45  0.492  0.491  0.497-  54 2.09  73 2.09  78 2.10  53 2.10  77 2.11  49 2.11   1 2.86  17 2.89
                            28 2.92  24 3.06  16 3.14  23 3.18  35 3.55  29 3.57  31 3.62  37 3.64
  46  0.492  0.992  0.998-  58 2.09  74 2.10  82 2.10  55 2.10  79 2.11  50 2.11   5 2.86   9 2.89
                             6 2.92  12 3.06  15 3.14  22 3.17  36 3.55  30 3.58  33 3.62  39 3.64
  47  0.993  0.992  0.498-  56 2.09  76 2.10  80 2.10  59 2.10  83 2.11  52 2.11  19 2.86  18 2.89
                            26 2.92  25 3.06   8 3.14  11 3.18  36 3.55  30 3.58  31 3.62  40 3.64
  48  0.993  0.491  0.997-  60 2.09  75 2.09  84 2.10  57 2.10  81 2.11  51 2.11  10 2.86  20 2.89
                             3 2.92  27 3.06  14 3.14  21 3.17  35 3.55  29 3.58  33 3.62  40 3.64
  49  0.472  0.370  0.295-  23 1.87  45 2.11  17 2.13  32 2.48  29 2.55
  50  0.573  0.173  0.200-  22 1.87  46 2.11   9 2.13  32 2.48  30 2.55
  51  0.014  0.310  0.897-  21 1.87  48 2.11  20 2.13  34 2.48  29 2.55
  52  0.912  0.113  0.598-  11 1.87  47 2.11  18 2.13  34 2.48  30 2.55
  53  0.285  0.470  0.376-  24 1.91   1 2.02  10 2.09  45 2.10  29 2.55  31 2.62
  54  0.379  0.289  0.475-   2 1.91  45 2.09  28 2.26  31 2.51  32 2.60
  55  0.592  0.904  0.118-  12 1.91   5 2.02  19 2.09  46 2.10  30 2.55  33 2.62
  56  0.173  0.194  0.585-   2 1.91  47 2.09  26 2.26  31 2.51  34 2.60
  57  0.201  0.578  0.183-  27 1.91  10 2.02   1 2.09  48 2.10  29 2.55  33 2.62
  58  0.312  0.899  0.019-  13 1.91  46 2.09   6 2.26  33 2.51  32 2.60
  59  0.894  0.013  0.311-  25 1.91  19 2.02   5 2.09  47 2.10  30 2.55  31 2.62
  60  0.107  0.584  0.909-  13 1.91  48 2.09   3 2.25  33 2.51  34 2.60
  61  0.108  0.009  0.205-  25 1.96  14 1.99   8 2.03  41 2.11  32 2.56  31 2.62
  62  0.302  0.899  0.289-  27 1.96   8 1.99  14 2.03  42 2.11  32 2.56  33 2.62
  63  0.183  0.474  0.595-  24 1.96  15 1.99  16 2.03  44 2.11  34 2.57  31 2.62
  64  0.378  0.584  0.900-  12 1.96  16 1.99  15 2.03  43 2.11  34 2.56  33 2.62
  65  0.011  0.192  0.109-   7 1.90  41 2.10  21 2.12  31 2.53  29 2.63
  66  0.197  0.114  0.028-   6 1.84  41 2.10  29 2.42  32 2.48
  67  0.582  0.899  0.386-   4 1.90  42 2.10  11 2.13  33 2.53  30 2.63
  68  0.288  0.318  0.916-  26 1.84  43 2.09  29 2.43  34 2.48
  69  0.904  0.291  0.315-   7 1.90  44 2.10  22 2.13  31 2.53  30 2.63
  70  0.585  0.165  0.466-  28 1.84  42 2.09  30 2.42  32 2.48
  71  0.474  0.584  0.179-   4 1.90  43 2.10  23 2.13  33 2.53  29 2.63
  72  0.901  0.369  0.579-   3 1.84  44 2.09  30 2.42  34 2.48
  73  0.524  0.614  0.702-  16 1.84  45 2.09  38 2.43  35 2.48
  74  0.411  0.818  0.793-  15 1.84  46 2.10  38 2.42  36 2.48
  75  0.962  0.665  0.089-  14 1.84  48 2.09  40 2.43  35 2.48
  76  0.074  0.869  0.405-   8 1.84  47 2.10  40 2.42  36 2.48
  77  0.701  0.509  0.612-  17 1.96  28 1.99   3 2.03  45 2.11  35 2.56  37 2.62
  78  0.604  0.692  0.516-   4 1.90  45 2.10   1 2.13  37 2.53  38 2.63
  79  0.395  0.084  0.882-   9 1.96   6 1.99  26 2.03  46 2.11  36 2.56  39 2.62
  80  0.811  0.791  0.408-   4 1.90  47 2.10  19 2.13  37 2.53  40 2.63
[...]
   0.245E+02 -.664E+01 -.179E+02   -.231E+02 0.689E+01 0.156E+02   -.145E+01 -.254E+00 0.232E+01
   -.246E+02 -.681E+01 0.180E+02   0.232E+02 0.706E+01 -.157E+02   0.145E+01 -.249E+00 -.233E+01
   0.245E+02 0.670E+01 0.179E+02   -.231E+02 -.696E+01 -.156E+02   -.145E+01 0.256E+00 -.232E+01
   0.233E+02 -.164E+02 0.201E+02   -.214E+02 0.157E+02 -.181E+02   -.183E+01 0.694E+00 -.206E+01
   -.232E+02 -.161E+02 -.202E+02   0.214E+02 0.154E+02 0.181E+02   0.182E+01 0.689E+00 0.207E+01
   -.186E+02 0.105E+02 0.239E+02   0.164E+02 -.102E+02 -.225E+02   0.218E+01 -.258E+00 -.134E+01
   0.234E+02 0.162E+02 -.203E+02   -.215E+02 -.155E+02 0.183E+02   -.183E+01 -.688E+00 0.207E+01
   -.237E+02 0.105E+02 0.187E+02   0.224E+02 -.102E+02 -.165E+02   0.133E+01 -.261E+00 -.218E+01
   0.239E+02 0.102E+02 -.186E+02   -.225E+02 -.997E+01 0.164E+02   -.134E+01 -.245E+00 0.218E+01
   -.240E+02 -.103E+02 -.186E+02   0.226E+02 0.100E+02 0.164E+02   0.134E+01 0.245E+00 0.218E+01
   -.201E+02 -.164E+02 -.232E+02   0.181E+02 0.157E+02 0.214E+02   0.206E+01 0.697E+00 0.182E+01
   0.202E+02 -.162E+02 0.232E+02   -.181E+02 0.155E+02 -.213E+02   -.206E+01 0.689E+00 -.182E+01
   0.180E+02 -.674E+01 -.246E+02   -.157E+02 0.699E+01 0.231E+02   -.233E+01 -.251E+00 0.145E+01
   -.203E+02 0.163E+02 0.231E+02   0.182E+02 -.156E+02 -.213E+02   0.207E+01 -.698E+00 -.182E+01
   -.179E+02 -.663E+01 0.246E+02   0.156E+02 0.689E+01 -.231E+02   0.232E+01 -.258E+00 -.145E+01
   -.716E+01 -.515E-01 0.141E-01   0.633E+01 0.497E-01 -.131E-01   0.322E+00 0.358E-03 -.417E-03
   0.725E+01 0.949E-01 0.242E-01   -.641E+01 -.913E-01 -.228E-01   -.323E+00 -.127E-02 -.124E-02
   0.274E-01 -.690E+01 0.130E+00   -.269E-01 0.705E+01 -.128E+00   -.101E-03 -.585E-01 -.137E-02
   -.137E+00 -.259E+00 0.242E+02   0.135E+00 0.255E+00 -.235E+02   0.572E-03 0.116E-02 -.226E+00
   0.151E+00 0.705E+01 -.101E+00   -.151E+00 -.720E+01 0.102E+00   0.186E-03 0.580E-01 -.109E-02
   -.315E+00 0.110E+00 -.242E+02   0.310E+00 -.113E+00 0.235E+02   0.156E-02 0.970E-03 0.225E+00
   0.242E+02 -.176E+00 0.538E-02   -.235E+02 0.168E+00 -.525E-02   -.225E+00 0.351E-02 -.104E-03
   -.242E+02 0.126E+00 -.137E-01   0.236E+02 -.123E+00 0.128E-01   0.225E+00 -.187E-03 -.328E-03
   -.921E-01 -.705E+01 0.108E-01   0.896E-01 0.721E+01 -.116E-01   0.113E-02 -.598E-01 -.338E-03
   -.475E-01 -.114E+00 -.704E+01   0.478E-01 0.114E+00 0.621E+01   0.505E-03 0.355E-03 0.319E+00
   -.819E-01 0.698E+01 -.116E+00   0.801E-01 -.713E+01 0.112E+00   0.158E-03 0.601E-01 0.112E-02
   -.150E+00 0.449E-01 0.721E+01   0.146E+00 -.437E-01 -.637E+01   0.165E-02 -.741E-03 -.321E+00
   0.119E+02 -.365E+01 -.692E+01   -.119E+02 0.368E+01 0.695E+01   0.140E-01 -.174E-01 -.137E-01
   -.120E+02 0.352E+01 -.702E+01   0.121E+02 -.355E+01 0.706E+01   -.909E-02 0.201E-01 -.185E-01
   0.119E+02 0.361E+01 0.686E+01   -.119E+02 -.365E+01 -.690E+01   0.101E-01 0.199E-01 0.164E-01
   -.121E+02 -.361E+01 0.714E+01   0.121E+02 0.365E+01 -.718E+01   -.836E-02 -.219E-01 0.176E-01
   -.705E+01 -.363E+01 0.119E+02   0.709E+01 0.367E+01 -.119E+02   -.173E-01 -.200E-01 0.158E-01
   0.721E+01 0.346E+01 0.122E+02   -.724E+01 -.349E+01 -.122E+02   0.162E-01 0.168E-01 0.932E-02
   0.701E+01 -.367E+01 -.122E+02   -.704E+01 0.370E+01 0.122E+02   0.194E-01 -.190E-01 -.693E-02
   -.687E+01 0.376E+01 -.119E+02   0.691E+01 -.379E+01 0.119E+02   -.213E-01 0.193E-01 -.163E-01
   0.892E+02 0.279E+02 -.342E+02   -.952E+02 -.298E+02 0.356E+02   0.509E+01 0.166E+01 -.112E+01
   -.893E+02 -.281E+02 -.342E+02   0.952E+02 0.300E+02 0.355E+02   -.508E+01 -.166E+01 -.112E+01
   0.895E+02 -.277E+02 0.341E+02   -.954E+02 0.296E+02 -.355E+02   0.510E+01 -.165E+01 0.111E+01
   -.894E+02 0.279E+02 0.343E+02   0.954E+02 -.298E+02 -.357E+02   -.509E+01 0.166E+01 0.113E+01
   -.245E+02 0.866E+02 0.441E+02   0.252E+02 -.925E+02 -.471E+02   -.538E+00 0.496E+01 0.258E+01
   0.224E+02 -.475E+02 0.110E+03   -.251E+02 0.502E+02 -.116E+03   0.229E+01 -.229E+01 0.502E+01
   0.246E+02 -.867E+02 0.439E+02   -.252E+02 0.925E+02 -.469E+02   0.536E+00 -.495E+01 0.258E+01
   -.223E+02 -.473E+02 -.110E+03   0.250E+02 0.500E+02 0.116E+03   -.229E+01 -.228E+01 -.501E+01
   -.245E+02 -.867E+02 -.441E+02   0.251E+02 0.925E+02 0.471E+02   -.535E+00 -.496E+01 -.259E+01
   -.223E+02 0.474E+02 0.110E+03   0.249E+02 -.501E+02 -.116E+03   -.229E+01 0.229E+01 0.501E+01
   0.245E+02 0.868E+02 -.441E+02   -.252E+02 -.926E+02 0.471E+02   0.541E+00 0.496E+01 -.258E+01
   0.226E+02 0.476E+02 -.110E+03   -.252E+02 -.503E+02 0.116E+03   0.229E+01 0.229E+01 -.502E+01
[...]
   -.308E+02 -.966E+02 0.413E+02   0.320E+02 0.102E+03 -.444E+02   -.972E+00 -.475E+01 0.269E+01
   -.267E+02 -.345E+02 0.103E+03   0.293E+02 0.364E+02 -.109E+03   -.230E+01 -.158E+01 0.490E+01
   0.440E+02 0.868E+02 -.245E+02   -.470E+02 -.927E+02 0.252E+02   0.257E+01 0.497E+01 -.543E+00
   -.439E+02 -.868E+02 -.245E+02   0.469E+02 0.927E+02 0.252E+02   -.257E+01 -.497E+01 -.528E+00
   -.440E+02 0.866E+02 0.245E+02   0.470E+02 -.924E+02 -.252E+02   -.258E+01 0.495E+01 0.536E+00
   0.440E+02 -.867E+02 0.245E+02   -.470E+02 0.925E+02 -.252E+02   0.259E+01 -.495E+01 0.547E+00
   0.110E+03 -.474E+02 0.224E+02   -.116E+03 0.501E+02 -.251E+02   0.502E+01 -.228E+01 0.229E+01
   -.343E+02 0.279E+02 0.894E+02   0.357E+02 -.299E+02 -.954E+02   -.113E+01 0.166E+01 0.509E+01
   -.110E+03 0.475E+02 0.223E+02   0.116E+03 -.503E+02 -.250E+02   -.501E+01 0.229E+01 0.228E+01
   -.342E+02 -.279E+02 -.894E+02   0.356E+02 0.298E+02 0.954E+02   -.112E+01 -.166E+01 -.509E+01
   -.110E+03 -.475E+02 -.223E+02   0.116E+03 0.502E+02 0.249E+02   -.502E+01 -.228E+01 -.229E+01
   0.341E+02 -.280E+02 0.893E+02   -.355E+02 0.299E+02 -.952E+02   0.112E+01 -.166E+01 0.508E+01
   0.110E+03 0.474E+02 -.225E+02   -.116E+03 -.501E+02 0.251E+02   0.502E+01 0.229E+01 -.229E+01
   0.342E+02 0.280E+02 -.892E+02   -.356E+02 -.299E+02 0.952E+02   0.113E+01 0.166E+01 -.509E+01
   -.207E-01 -.421E-01 -.274E-01   0.924E-13 -.995E-13 0.355E-12   0.188E-01 0.155E-01 0.152E-01

 POSITION                                       TOTAL-FORCE (eV/Angst)
      4.26189      0.72921      4.34339         0.008425     -0.000131     -0.006769
      3.24362      4.70842     -0.08595        -0.000138      0.000985      0.001914
      2.12863      6.95461      4.27325        -0.012631     -0.003033     -0.011688
      3.24335      1.56258      6.45524         0.000129     -0.001346      0.001352
     -4.31718      5.54389      4.34224        -0.009790      0.000788     -0.007337
     10.90094      0.65906      2.09702         0.013026     -0.002755      0.007812
     -3.29824      4.70841      6.45474         0.000074      0.001256      0.001299
      7.60254     -2.48474      5.34127        -0.010060     -0.002539     -0.014578
     -0.93687      1.75588      4.13649        -0.003980      0.008591      0.011809
      4.26085     -0.75004      2.02624         0.011336      0.000444      0.006224
      5.35509      2.39557      7.47379         0.009431      0.000568      0.009090
      7.46634      4.90184      2.27326         0.009670      0.009527     -0.003456
      9.78574      1.56262     -0.08583        -0.000095     -0.001641      0.001815
      5.42492     -3.82776      5.34204         0.010059      0.003432     -0.013915
      7.60240      2.46462      1.02967        -0.010724      0.001850      0.011262
      5.42551      3.80679      1.02898         0.009499     -0.002887      0.011006
      0.88282      4.51656      4.13719         0.004057     -0.009990      0.011709
      5.60490      4.51768     -4.30948        -0.003968     -0.008168     -0.006262
      2.22544      0.72979      8.56843        -0.012434     -0.000884      0.006100
      0.88385      8.04869      2.23044         0.004047      0.008250     -0.008343
      1.13290     10.17015      0.93205        -0.008768     -0.001049      0.009481
     -1.18522      3.87539      5.43745         0.005652      0.000025     -0.009050
      1.13025      2.39642      5.43788        -0.005668     -0.000011     -0.008485
      5.56198      1.36882      2.27543        -0.008563     -0.009447     -0.004028
      0.92319      1.37144     10.63706         0.009000     -0.009383      0.005683
      4.35858      5.61085     -2.26722         0.012634      0.002656     -0.011646
      5.56216     -1.39124      4.09489        -0.009067      0.009390      0.004861
      2.12901      5.61184      2.09618        -0.013178      0.003438      0.009443
      1.54032     -0.00982      3.18595        -0.004481      0.000192      0.000304
     -1.59474      6.28294      3.18519         0.005125      0.000483     -0.000046
      3.24379      1.56595     -0.08559        -0.000249      0.000801      0.000256
     -0.02730      3.13674      1.55605         0.000667      0.000550      0.000991
      3.24351     -1.58617      6.45668        -0.000160     -0.000689     -0.000323
      6.51472      3.13630     -1.72779         0.000210     -0.000440     -0.000940
      4.88474      6.28213      3.18447         0.001252     -0.000142     -0.000104
      8.14372     -0.01069      3.18502        -0.001199      0.000201     -0.000239
      3.24275      4.71152      6.45579        -0.000105      0.000919      0.000208
      6.51414      3.13567      4.75220         0.000512      0.000280     -0.005331
      3.24350      7.85270     -0.08681        -0.000147     -0.000633     -0.001025
     -0.02830      3.13593      8.15925         0.000102      0.000180      0.004954
      6.50809      6.28198      6.44845        -0.000440      0.002159      0.000574
      6.51966     -0.01119      6.44925         0.001718     -0.001220     -0.001416
      6.50861      6.28181     -0.07987        -0.000817     -0.003300     -0.000485
     -0.02259      6.28280      6.46252         0.000545      0.002178      0.000575
      3.23672      3.13677      3.17960        -0.001121      0.003240     -0.000472
      9.79181      3.13442      3.17857         0.000931     -0.003281      0.000375
      3.24928      3.13551      9.73219         0.001287      0.002310      0.000357
      3.23646      9.42830      3.18990        -0.001318     -0.003431      0.000709
      1.26298      2.49525      3.57453         0.039543      0.012492     -0.009292
     -1.31762      3.77764      3.57406        -0.038366     -0.011640     -0.009673
      7.80582      3.77860     -3.74590         0.040119     -0.012761      0.009335
     -1.31849      8.78705      2.79618        -0.040349      0.012837      0.009022
      3.66887      1.20379      2.47353        -0.011139      0.038763      0.016816
      2.52461      3.55408      1.26013         0.014643     -0.017926      0.042315
      2.81778     -1.22493      9.01482         0.010160     -0.038969      0.016464
      3.96329      3.55393     -1.43102        -0.014282     -0.017051     -0.041674
      3.66938     -1.22307      3.89701        -0.009650     -0.038543     -0.017350
      3.96324     -3.57508      7.80224        -0.015335      0.018248      0.041589
     -3.72493      7.49649      3.89663         0.010391      0.038702     -0.017041
      9.06779      2.71885     -1.43198         0.014925      0.017269     -0.041837
[...]
      2.53922      9.87309     -1.43985         0.015743     -0.013244     -0.040791
     10.27819     -1.23530      2.46207        -0.011837     -0.039057      0.016347
     -2.59377      3.58027      7.80875        -0.016085     -0.013110      0.040850
      5.80256      4.34906      6.88139         0.016559      0.038966     -0.010885
      0.68487      8.21600      0.33854        -0.016914     -0.038652     -0.010034
      0.68431      4.34966      6.03078        -0.017836      0.038863      0.010143
     -0.73901      1.92246      6.03024         0.017357     -0.038847      0.010211
      4.58843      6.69969      5.73659         0.042367     -0.017336      0.014453
      6.90257      5.64057      4.47496        -0.009673      0.012767      0.039722
      1.89813      5.86486     -0.80470        -0.042504      0.016862      0.014634
      0.36153      0.63145      8.43659        -0.009043     -0.012513     -0.039667
      8.44009      0.40743      0.63361        -0.041625     -0.017133     -0.014062
      6.12532      0.63046      4.47534         0.008796     -0.012299      0.039724
      4.58921      5.86438      0.63269         0.041770      0.017319     -0.015089
      6.12511     -0.65147      1.89447         0.008967      0.012033     -0.039820
    total drift:                                0.020043     -0.017015     -0.017116

  FREE ENERGIE OF THE ION-ELECTRON SYSTEM (eV)
  free  energy   TOTEN  =      -838.85287281 eV

  energy  without entropy=     -838.85287281  energy(sigma->0) =     -838.85287281

 total charge

[...]

 magnetization (x)

# of ion       s       p       d       f       tot
    1        0.000   0.000   0.000   0.000   0.000
    2        0.000   0.000   0.000   0.000   0.000
    3        0.000   0.000   0.000   0.000   0.000
    4        0.000   0.000   0.000   0.000   0.000
    5        0.000   0.000   0.000   0.000   0.000
    6        0.000   0.000   0.000   0.000   0.000
    7        0.000   0.000   0.000   0.000   0.000
    8        0.000   0.000   0.000   0.000   0.000
    9       -0.000   0.000   0.000   0.000   0.000
   10        0.000   0.000   0.000   0.000   0.000
   11        0.000   0.000   0.000   0.000   0.000
   12        0.000   0.000   0.000   0.000   0.000
   13        0.000   0.000   0.000   0.000   0.000
   14        0.000   0.000   0.000   0.000   0.000
   15        0.000   0.000   0.000   0.000   0.000
   16        0.000   0.000   0.000   0.000   0.000
   17       -0.000   0.000   0.000   0.000  -0.000
   18        0.000   0.000   0.000   0.000   0.000
   19       -0.000   0.000   0.000   0.000   0.000
   20        0.000   0.000   0.000   0.000   0.000
   21        0.000   0.000   0.000   0.000   0.000
   22        0.000   0.000   0.000   0.000   0.000
   23        0.000   0.000   0.000   0.000   0.000
   24       -0.000   0.000   0.000   0.000   0.000
   25       -0.000   0.000   0.000   0.000   0.000
   26        0.000   0.000   0.000   0.000   0.000
   27       -0.000   0.000   0.000   0.000  -0.000
   28       -0.000   0.000   0.000   0.000  -0.000
   29        0.000  -0.000  -0.000   0.000   0.000
   30        0.000  -0.000  -0.000   0.000   0.000
   31        0.000  -0.000  -0.000  -0.000  -0.000
   32        0.000  -0.000  -0.000   0.000   0.000
   33        0.000  -0.000  -0.000  -0.000  -0.000
   34        0.000  -0.000  -0.000   0.000   0.000
   35        0.000  -0.000  -0.000  -0.000   0.000
   36        0.000  -0.000  -0.000  -0.000   0.000
   37        0.000  -0.000  -0.000  -0.000  -0.000
   38        0.000  -0.000  -0.000  -0.000   0.000
   39        0.000  -0.000   0.000   0.000   0.000
   40        0.000  -0.000  -0.000  -0.000   0.000
   41       -0.000   0.000  -0.000   0.000  -0.000
   42       -0.000   0.000  -0.000   0.000  -0.000
   43       -0.000   0.000  -0.000   0.000  -0.000
   44       -0.000   0.000  -0.000   0.000  -0.000
   45       -0.000   0.000  -0.000   0.000  -0.000
   46       -0.000   0.000  -0.000   0.000  -0.000
   47       -0.000   0.000  -0.000   0.000  -0.000
   48       -0.000   0.000  -0.000   0.000  -0.000
   49       -0.000   0.000   0.000   0.000   0.000
   50       -0.000  -0.000   0.000   0.000  -0.000
   51       -0.000  -0.000   0.000   0.000  -0.000
   52       -0.000   0.000   0.000   0.000   0.000
   53        0.000   0.000   0.000   0.000   0.000
   54       -0.000  -0.000   0.000   0.000  -0.000
   55        0.000   0.000   0.000   0.000   0.000
   56        0.000  -0.000   0.000   0.000  -0.000
   57        0.000   0.000   0.000   0.000   0.000
   58        0.000  -0.000   0.000   0.000  -0.000
   59       -0.000   0.000   0.000   0.000   0.000
   60       -0.000  -0.000   0.000   0.000  -0.000
[...]
   82       -0.000  -0.000   0.000   0.000  -0.000
   83        0.000   0.000   0.000   0.000   0.000
   84       -0.000  -0.000   0.000   0.000  -0.000
   85        0.000   0.000   0.000   0.000   0.000
   86        0.000   0.000   0.000   0.000   0.000
   87        0.000   0.000   0.000   0.000   0.000
   88        0.000   0.000   0.000   0.000   0.000
   89       -0.000  -0.000   0.000   0.000  -0.000
   90        0.000   0.000   0.000   0.000   0.000
   91       -0.000  -0.000   0.000   0.000  -0.000
   92       -0.000   0.000   0.000   0.000   0.000
   93       -0.000  -0.000   0.000   0.000  -0.000
   94       -0.000  -0.000   0.000   0.000  -0.000
   95       -0.000  -0.000   0.000   0.000  -0.000
   96       -0.000  -0.000   0.000   0.000  -0.000
tot          0.000  -0.000  -0.000  -0.000  -0.000