 vasp.6.3.2 27Jun22 (build Mar 25 2024 10:42:18) complex
 executed on             LinuxGNU date 2024.05.15  14:41:56

 INCAR:
   ALGO = All
   EDIFF = 1e-08
   EDIFFG = -0.001
   ENAUG = 1360
   ENCUT = 680
   IBRION = 2
   ISIF = 3
   ISMEAR = 2
   ISPIN = 2
   KSPACING = 0.22
   LAECHG = True
   LASPH = True
   LCHARG = True
   LELF = False
   LMIXTAU = True
   LORBIT = 11
   LREAL = Auto
   LVTOT = True
   LWAVE = False
   MAGMOM = 2*-0.0
   METAGGA = R2scan
   NELM = 200
   NSW = 99
   PREC = Accurate
   SIGMA = 0.2

 POTCAR:    PAW_PBE Na_pv 19Sep2006
 WARNING: For LVTOT=.TRUE., VASP.5.x writes the TOTAL local potential to the
     file LOCPOT. If you want only the Hartree contributions, use LVHAR=.TRUE.
     instead.

   TITEL  = PAW_PBE Na_pv 19Sep2006
   POMASS =   22.990; ZVAL   =    7.000    mass and valenz
   ENMAX  =  259.561; ENMIN  =  194.671 eV

 Optimization of the real space projectors (new method)

 maximal supplied QI-value         = 17.01
 optimisation between [QCUT,QGAM] = [ 13.27, 26.70] = [ 49.28,199.66] Ry
 Optimized for a Real-space Cutoff    1.38 Angstroem

   l    n(q)    QCUT    max X(q) W(low)/X(q) W(high)/X(q)  e(spline)
   1     11    13.266     4.940    0.11E-03    0.62E-04    0.24E-06
   1     11    13.266     6.253    0.16E-03    0.89E-04    0.35E-06
   0     11    13.266    37.438    0.39E-04    0.39E-05    0.18E-06
   0     11    13.266     9.606    0.17E-04    0.30E-05    0.12E-06
  PAW_PBE Na_pv 19Sep2006               :

 POSCAR: Na2
  positions in direct lattice

 METAGGA = R2SCA    LMAXTAU =  6    LMIXTAU =  T

 ion  position               nearest neighbor table
   1  0.333  0.667  0.250-
   2  0.667  0.333  0.750-

  LATTYP: Found a hexagonal cell.
 ALAT       =     3.6887710000
 C/A-ratio  =     1.6995346146

  Lattice vectors:

 A1 = (   3.6887710000,   0.0000000000,   0.0000000000)
 A2 = (  -1.8443850000,   3.1945690000,   0.0000000000)
 A3 = (   0.0000000000,   0.0000000000,   6.2691940000)

Analysis of symmetry for initial positions (statically):
 Subroutine PRICEL returns:
 Original cell was already a primitive cell.

 Routine SETGRP: Setting up the symmetry group for a
 hexagonal supercell.

 Subroutine GETGRP returns: Found 24 space group operations
 (whereof 12 operations were pure point group operations)
 out of a pool of 24 trial point group operations.

The static configuration has the point symmetry D_3d.
 The point group associated with its full space group is D_6h.

Analysis of symmetry for dynamics (positions and initial velocities):
 Subroutine PRICEL returns:
 Original cell was already a primitive cell.

[...]

The dynamic configuration has the point symmetry D_3d.
 The point group associated with its full space group is D_6h.

Analysis of structural, dynamic, and magnetic symmetry:
 Subroutine PRICEL returns:
 Original cell was already a primitive cell.

 Routine SETGRP: Setting up the symmetry group for a
 hexagonal supercell.

 Subroutine GETGRP returns: Found 24 space group operations
 (whereof 12 operations were pure point group operations)
 out of a pool of 24 trial point group operations.

The overall configuration has the point symmetry D_3d.
 The point group associated with its full space group is D_6h.

 Subroutine INISYM returns: Found 24 space group operations
 (whereof 12 operations are pure point group operations),
 and found     1 'primitive' translations

                                     Primitive cell

  volume of cell :      73.8764

  direct lattice vectors                    reciprocal lattice vectors
     3.688771000  0.000000000  0.000000000     0.271093001  0.156515594 -0.000000000
    -1.844385000  3.194569000  0.000000000     0.000000000  0.313031273  0.000000000
     0.000000000  0.000000000  6.269194000     0.000000000 -0.000000000  0.159510138

  length of vectors
     3.688771000  3.688770408  6.269194000     0.313031223  0.313031273  0.159510138

  position of ions in fractional coordinates (direct lattice)
     0.333333000  0.666667000  0.250000000
     0.666667000  0.333333000  0.750000000

  ion indices of the primitive-cell ions
   primitive index   ion index
                 1           1
                 2           2

 KPOINTS: pymatgen with grid density = 428 / numbe

Automatic generation of k-mesh.
 Grid dimensions read from file:
 generate k-points for:    3    6    2

 Generating k-lattice:

  Cartesian coordinates                     Fractional coordinates (reciprocal lattice)
     0.090364334  0.052171865 -0.000000000     0.333333333 -0.000000000  0.000000000
     0.000000000  0.052171879  0.000000000     0.000000000  0.166666667  0.000000000
     0.000000000 -0.000000000  0.079755069     0.000000000  0.000000000  0.500000000

  Length of vectors
     0.104343741  0.052171879  0.079755069

  Shift w.r.t. Gamma in fractional coordinates (k-lattice)
     0.000000000  0.000000000  0.000000000

 WARNING: IBZKPT: internal override: KBLOWUP is changed to .FALSE.
      ... skipping the blow-up phase ...

 Subroutine IBZKPT returns following result:

 Found     14 irreducible k-points:

 Following reciprocal coordinates:
            Coordinates               Weight
  0.000000  0.000000  0.000000      1.000000
  0.333333  0.000000  0.000000      6.000000
  0.000000  0.166667  0.000000      2.000000
  0.333333  0.166667  0.000000      4.000000
 -0.333333  0.166667  0.000000      2.000000
  0.333333  0.333333  0.000000      2.000000
  0.000000  0.500000  0.000000      1.000000
  0.000000  0.000000  0.500000      1.000000
  0.333333  0.000000  0.500000      6.000000
  0.000000  0.166667  0.500000      2.000000
  0.333333  0.166667  0.500000      4.000000
 -0.333333  0.166667  0.500000      2.000000
  0.333333  0.333333  0.500000      2.000000
  0.000000  0.500000  0.500000      1.000000

 Following cartesian coordinates:
            Coordinates               Weight
  0.000000  0.000000  0.000000      1.000000
  0.090364  0.052172  0.000000      6.000000
  0.000000  0.052172  0.000000      2.000000
  0.090364  0.104344  0.000000      4.000000
 -0.090364  0.000000  0.000000      2.000000
  0.090364  0.156516  0.000000      2.000000
  0.000000  0.156516  0.000000      1.000000
  0.000000  0.000000  0.079755      1.000000
  0.090364  0.052172  0.079755      6.000000
  0.000000  0.052172  0.079755      2.000000
  0.090364  0.104344  0.079755      4.000000
 -0.090364  0.000000  0.079755      2.000000
  0.090364  0.156516  0.079755      2.000000
  0.000000  0.156516  0.079755      1.000000

 SYSTEM =  unknown system
 POSCAR =  Na2

 Startparameter for this run:
   NWRITE =      2    write-flag & timer
   PREC   = accura    normal or accurate (medium, high low for compatibility)
   ISTART =      0    job   : 0-new  1-cont  2-samecut
   ICHARG =      2    charge: 1-file 2-atom 10-const
   ISPIN  =      2    spin polarized calculation?
   LNONCOLLINEAR =      F non collinear calculations
   LSORBIT =      F    spin-orbit coupling
   INIWAV =      1    electr: 0-lowe 1-rand  2-diag
   LASPH  =      T    aspherical Exc in radial PAW
 Electronic Relaxation 1
   ENCUT  =  680.0 eV  49.98 Ry    7.07 a.u.   7.84  7.84 13.33*2*pi/ulx,y,z
   ENINI  =  680.0     initial cutoff
   ENAUG  = 1360.0 eV  augmentation charge cutoff
   NELM   =    200;   NELMIN=  2; NELMDL= -5     # of ELM steps
   EDIFF  = 0.1E-07   stopping-criterion for ELM
   LREAL  =      T    real-space projection
   NLSPLINE    = F    spline interpolate recip. space projectors
   LCOMPAT=      F    compatible to vasp.4.4
   GGA_COMPAT  = T    GGA compatible to vasp.4.4-vasp.4.6
   LMAXPAW     = -100 max onsite density
   LMAXMIX     =    2 max onsite mixed and CHGCAR
   VOSKOWN=      0    Vosko Wilk Nusair interpolation
   ROPT   =   -0.00025
 Ionic relaxation
   EDIFFG = -.1E-02   stopping-criterion for IOM
   NSW    =     99    number of steps for IOM
   NBLOCK =      1;   KBLOCK =     99    inner block; outer block
   IBRION =      2    ionic relax: 0-MD 1-quasi-New 2-CG
   NFREE  =      1    steps in history (QN), initial steepest desc. (CG)
   ISIF   =      3    stress and relaxation
   IWAVPR =     11    prediction:  0-non 1-charg 2-wave 3-comb
   ISYM   =      2    0-nonsym 1-usesym 2-fastsym
   LCORR  =      T    Harris-Foulkes like correction to forces

   POTIM  = 0.5000    time-step for ionic-motion
   TEIN   =    0.0    initial temperature
   TEBEG  =    0.0;   TEEND  =   0.0 temperature during run
   SMASS  =  -3.00    Nose mass-parameter (am)
   estimated Nose-frequenzy (Omega)   =  0.10E-29 period in steps = 0.13E+47 mass=  -0.311E-27a.u.
   SCALEE = 1.0000    scale energy and forces
   NPACO  =    256;   APACO  = 10.0  distance and # of slots for P.C.
   PSTRESS=    0.0 pullay stress

  Mass of Ions in am
   POMASS =  22.99
  Ionic Valenz
   ZVAL   =   7.00
  Atomic Wigner-Seitz radii
  virtual crystal weights
   VCA    =   1.00
   NELECT =      14.0000    total number of electrons
   NUPDOWN=      -1.0000    fix difference up-down

 DOS related values:
   EMIN   =  10.00;   EMAX   =-10.00  energy-range for DOS
   EFERMI =   0.00
   ISMEAR =     2;   SIGMA  =   0.20  broadening in eV -4-tet -1-fermi 0-gaus

 Electronic relaxation 2 (details)
   IALGO  =     58    algorithm
   LDIAG  =      T    sub-space diagonalisation (order eigenvalues)
   LSUBROT=      F    optimize rotation matrix (better conditioning)
   TURBO    =      0    0=normal 1=particle mesh
   IRESTART =      0    0=no restart 2=restart with 2 vectors
   NREBOOT  =      0    no. of reboots
   NMIN     =      0    reboot dimension
   EREF     =   0.00    reference energy to select bands
   IMIX   =      4    mixing-type and parameters
     AMIX     =   0.40;   BMIX     =  1.00
     AMIX_MAG =   1.60;   BMIX_MAG =  1.00
     AMIN     =   0.10
     WC   =   100.;   INIMIX=   1;  MIXPRE=   1;  MAXMIX= -45

 Intra band minimization:
   WEIMIN = 0.0010     energy-eigenvalue tresh-hold
   EBREAK =  0.78E-10  absolut break condition
   DEPER  =   0.30     relativ break condition

   TIME   =   0.40     timestep for ELM

  volume/ion in A,a.u.               =      36.94       249.27
  Fermi-wavevector in a.u.,A,eV,Ry     =   0.940334  1.776974 12.030661  0.884229
  Thomas-Fermi vector in A             =   2.067736

 Write flags
   LWAVE        =      F    write WAVECAR
   LDOWNSAMPLE  =      F    k-point downsampling of WAVECAR
   LCHARG       =      T    write CHGCAR
   LVTOT        =      T    write LOCPOT, total local potential
   LVHAR        =      F    write LOCPOT, Hartree potential only
   LELF         =      F    write electronic localiz. function (ELF)
   LORBIT       =     11    0 simple, 1 ext, 2 COOP (PROOUT), +10 PAW based schemes

 Dipole corrections
   LMONO  =      F    monopole corrections only (constant potential shift)
   LDIPOL =      F    correct potential (dipole corrections)
   IDIPOL =      0    1-x, 2-y, 3-z, 4-all directions
   EPSILON=  1.0000000 bulk dielectric constant

 Exchange correlation treatment:
   GGA     =    --    GGA type
   VOSKOWN =     0    Vosko Wilk Nusair interpolation
   LHFCALC =     F    Hartree Fock is set to
   LHFONE  =     F    Hartree Fock one center treatment
   AEXX    =    0.0000 exact exchange contribution

[...]
 k-point   8 :   0.0000 0.0000 0.5000  plane waves:    2942
 k-point   9 :   0.3333 0.0000 0.5000  plane waves:    2986
 k-point  10 :   0.0000 0.1667 0.5000  plane waves:    2956
 k-point  11 :   0.3333 0.1667 0.5000  plane waves:    2974
 k-point  12 :  -0.3333 0.1667 0.5000  plane waves:    2956
 k-point  13 :   0.3333 0.3333 0.5000  plane waves:    3012
 k-point  14 :   0.0000 0.5000 0.5000  plane waves:    2976

 maximum and minimum number of plane-waves per node :      3012     2942

 maximum number of plane-waves:      3012
 maximum index in each direction:
   IXMAX=    8   IYMAX=    7   IZMAX=   13
   IXMIN=   -8   IYMIN=   -8   IZMIN=  -13

 serial   3D FFT for wavefunctions
 parallel 3D FFT for charge:
    minimum data exchange during FFTs selected (reduces bandwidth)

 Broyden mixing: mesh for mixing (old mesh)
   NGX = 15   NGY = 15   NGZ = 27
  (NGX  = 64   NGY  = 64   NGZ  =108)
  gives a total of   6075 points

 initial charge density was supplied:
 charge density of overlapping atoms calculated
 number of electron      14.0000000 magnetization       0.0000000
 keeping initial charge density in first step

 Maximum index for non-local projection operator         8004
 Maximum index for augmentation-charges          545 (set IRDMAX)

 First call to EWALD:  gamma=   0.422
 Maximum number of real-space cells 3x 3x 2
 Maximum number of reciprocal cells 2x 2x 4

--------------------------------------- Iteration      1(   1)  ---------------------------------------

 eigenvalue-minimisations  :  1792
 total energy-change (2. order) : 0.1894331E+02  (-0.1026450E+04)
 number of electron      14.0000000 magnetization       0.0000000
 augmentation part       14.0000000 magnetization       0.0000000

 Free energy of the ion-electron system (eV)
  alpha Z        PSCENC =        16.50867730
  Ewald energy   TEWEN  =      -611.77077223
  -Hartree energ DENC   =      -517.46265713
  -exchange      EXHF   =         0.00000000
  -V(xc)+E(xc)   XCENC  =        60.19270722
  PAW double counting   =       993.53070128    -1170.43021600
  entropy T*S    EENTRO =        -0.00012014
  eigenvalues    EBANDS =      -283.71082138
  atomic energy  EATOM  =      1532.08581178
  free energy    TOTEN  =        18.94331070 eV

  energy without entropy =       18.94343084  energy(sigma->0) =       18.94334073

[...]

 eigenvalue-minimisations  :  2464
 total energy-change (2. order) :-0.2701669E+02  (-0.2701697E+02)
 number of electron      14.0000000 magnetization       0.0000000
 augmentation part       14.0000000 magnetization       0.0000000

[...]

  average scaling for gradient   9.5761

 average (electrostatic) potential at core
  the test charge radii are     0.9254
  (the norm of the test charge is              1.0000)
       1 -55.1243       2 -55.1243

 E-fermi :  -0.0244     XC(G=0):  -6.9296     alpha+bet : -4.7226

 Fermi energy:        -0.0244229879

 spin component 1

 k-point     1 :       0.0000    0.0000    0.0000
  band No.  band energies     occupation
      1     -25.6788      1.00000
      2     -25.6502      1.00000
      3     -25.6500      1.00000
      4     -25.6463      1.00000
      5     -25.6463      1.00000
      6     -25.6461      1.00000
      7      -3.1414      1.00000
      8       0.6648      0.00003
      9       1.2888      0.00000
     10      11.3087      0.00000
     11      11.3686      0.00000
     12      11.3688      0.00000
     13      11.9395      0.00000
     14      11.9395      0.00000
     15      13.0947      0.00000
     16      13.2148      0.00000
     17      13.3560      0.00000
     18      14.6973      0.00000
     19      14.6976      0.00000
     20      15.3082      0.00000
     21      15.3082      0.00000
     22      15.7971      0.00000
     23      15.7971      0.00000
     24      16.6617      0.00000
     25      16.6622      0.00000
     26      16.6935      0.00000
     27      17.0373      0.00000
     28      17.9051      0.00000
     29      22.4816      0.00000
     30      24.7441      0.00000
     31      24.7445      0.00000
     32      26.8807      0.00000

[...]

 k-point    14 :       0.0000    0.5000    0.5000
  band No.  band energies     occupation
      1     -25.6824      1.00000
      2     -25.6824      1.00000
      3     -25.6556      1.00000
      4     -25.6556      1.00000
      5     -25.6552      1.00000
      6     -25.6552      1.00000
      7       1.4570      0.00000
      8       1.4570      0.00000
      9       2.1678      0.00000
     10       2.1678      0.00000
     11       8.4437      0.00000
     12       8.4437      0.00000
     13       9.3051      0.00000
     14       9.3051      0.00000
     15       9.7067      0.00000
     16       9.7067      0.00000
     17      11.7303      0.00000
     18      11.7303      0.00000
     19      16.4952      0.00000
     20      16.4952      0.00000
     21      18.0235      0.00000
     22      18.0235      0.00000
     23      21.8535      0.00000
     24      21.8535      0.00000
     25      22.5021      0.00000
     26      22.5022      0.00000
     27      24.8572      0.00000
     28      24.8572      0.00000
     29      25.4009      0.00000
     30      25.4009      0.00000
     31      25.8957      0.00000
     32      25.8957      0.00000
 Fermi energy:        -0.0244229879

[...]

 soft charge-density along one line, spin component           1
         0         1         2         3         4         5         6         7         8         9
 total charge-density along one line

[...]

------------------------ aborting loop because EDIFF is reached ----------------------------------------

 total charge

# of ion       s       p       d       tot
    1        0.089   5.969   0.000   6.058
    2        0.089   5.969   0.000   6.058
tot          0.177  11.938   0.000  12.115

 magnetization (x)

[...]

  FORCE on cell =-STRESS in cart. coord.  units (eV):
  Direction    XX          YY          ZZ          XY          YZ          ZX
  Alpha Z    16.50868    16.50868    16.50868
  Ewald    -200.38684  -200.38675  -210.99742     0.00004    -0.00000    -0.00000
  Hartree   174.31881   174.31885   167.25121     0.00003    -0.00000     0.00000
  E(xc)     -82.78894   -82.93315   -82.88430     0.13076    -0.00000    -0.00000
  Local     -50.29995   -50.30003   -32.89096    -0.00006     0.00000    -0.00000
  n-local   -44.11638   -44.12104   -44.14299    -0.00380     0.00000    -0.00000
  augment    89.90850    89.90788    89.95346    -0.00053    -0.00000    -0.00000
  Kinetic    98.07017    96.13257    96.78542     1.74318    -0.00000    -0.00000
  Fock        0.00000     0.00000     0.00000     0.00000     0.00000     0.00000
  Total       0.17052     0.17052    -0.41689     0.00000     0.00000    -0.00000
  in kB       3.69818     3.69818    -9.04124     0.00000     0.00000    -0.00000

 VOLUME and BASIS-vectors are now :
  energy-cutoff  :      680.00
  volume of cell :       73.88
      direct lattice vectors                 reciprocal lattice vectors
     3.688771000  0.000000000  0.000000000     0.271093001  0.156515594 -0.000000000
    -1.844385000  3.194569000  0.000000000     0.000000000  0.313031273  0.000000000
     0.000000000  0.000000000  6.269194000     0.000000000 -0.000000000  0.159510138

[...]

 FORCES acting on ions:
    Electron-Ion                     Ewald-Force                    Non-Local-Force
   0.368E-03 -.188E-03 0.544E-07   0.143E-04 -.114E-04 -.716E-14   -.476E-20 0.119E-18 -.143E-23
   -.486E-03 0.299E-03 0.545E-07   -.143E-04 0.114E-04 0.716E-14   -.953E-19 -.613E-19 0.143E-23
   -.120E-03 0.113E-03 0.110E-06   -.577E-15 -.303E-14 0.536E-17   -.100E-18 0.575E-19 0.582E-26

 POSITION                                       TOTAL-FORCE (eV/Angst)
     -0.00000      2.12971      1.56730         0.000000     -0.000000      0.000000
      1.84439      1.06486      4.70190        -0.000000      0.000000     -0.000000
    total drift:                               -0.000120      0.000113      0.000000

  FREE ENERGIE OF THE ION-ELECTRON SYSTEM (eV)
  free  energy   TOTEN  =        -7.22946835 eV

  energy  without entropy=       -7.22610550  energy(sigma->0) =       -7.22862764

[...]

 d Force = 0.0000000E+00[ 0.000E+00, 0.000E+00]  d Energy = 0.4635880E-02-0.464E-02
 d Force = 0.0000000E+00[ 0.000E+00, 0.000E+00]  d Ewald  = 0.4680468E+00-0.468E+00

 Steepest descent step on ions:
 trial-energy change:   -0.004636  1 .order   -0.004631   -0.005595   -0.003668
  (g-gl).g = 0.560E-02      g.g   = 0.560E-02  gl.gl    = 0.000E+00
 g(Force)  = 0.181E-40   g(Stress)= 0.560E-02 ortho     = 0.000E+00
 gamma     =   0.00000
 trial     =   1.00000
 opt step  =   2.90288  (harmonic =   2.90288) maximal distance =0.00000000
 next E    =    -7.237589   (d E  =  -0.00812)

[...]

 d Force = 0.0000000E+00[ 0.000E+00, 0.000E+00]  d Energy = 0.3158454E-02-0.316E-02
 d Force = 0.0000000E+00[ 0.000E+00, 0.000E+00]  d Ewald  = 0.8655622E+00-0.866E+00

[...]

 eigenvalue-minimisations  :     0
 total energy-change (2. order) :-0.2684489E-04  ( 0.4753106E-05)
 number of electron      13.9999999 magnetization      -0.0000000
 augmentation part        8.9714408 magnetization      -0.0000001

[...]

 eigenvalue-minimisations  :     0
 total energy-change (2. order) :-0.9404175E-08  ( 0.5399645E-12)
 number of electron      13.9999999 magnetization      -0.0000000
 augmentation part        8.9714064 magnetization      -0.0000000

[...]

 d Force = 0.0000000E+00[ 0.000E+00, 0.000E+00]  d Energy = 0.3181808E-04-0.318E-04
 d Force = 0.0000000E+00[ 0.000E+00, 0.000E+00]  d Ewald  =-0.8529290E-01 0.853E-01

[...]

 eigenvalue-minimisations  :     0
 total energy-change (2. order) :-0.1765993E-06  (-0.4743663E-09)
 number of electron      13.9999999 magnetization       0.0000000
 augmentation part        8.9714086 magnetization      -0.0000000

[...]

--------------------------------------- Iteration      5(   9)  ---------------------------------------

 eigenvalue-minimisations  :     0
 total energy-change (2. order) : 0.3536570E-08  (-0.4547455E-09)
 number of electron      13.9999999 magnetization       0.0000000
 augmentation part        8.9714081 magnetization      -0.0000000

 Free energy of the ion-electron system (eV)
  alpha Z        PSCENC =        16.59856984
  Ewald energy   TEWEN  =      -613.01198055
  -Hartree energ DENC   =      -515.01394460
  -exchange      EXHF   =         0.00000000
  -V(xc)+E(xc)   XCENC  =        60.44753820
  PAW double counting   =       984.68384047    -1163.20877094
  entropy T*S    EENTRO =         0.00356076
  eigenvalues    EBANDS =      -309.82191922
  atomic energy  EATOM  =      1532.08581178
  free energy    TOTEN  =        -7.23729425 eV

  energy without entropy =       -7.24085500  energy(sigma->0) =       -7.23818444

  average scaling for gradient   1.3473

 average (electrostatic) potential at core
  the test charge radii are     0.9254
  (the norm of the test charge is              1.0000)
       1 -55.1028       2 -55.1028

 E-fermi :  -0.1090     XC(G=0):  -6.9451     alpha+bet : -4.7484

 Fermi energy:        -0.1090175874

[...]

 k-point    14 :       0.0000    0.5000    0.5000
  band No.  band energies     occupation
      1     -25.6604      1.00000
      2     -25.6604      1.00000
      3     -25.6347      1.00000
      4     -25.6347      1.00000
      5     -25.6343      1.00000
      6     -25.6343      1.00000
      7       1.4353      0.00000
      8       1.4353      0.00000
      9       2.1394      0.00000
     10       2.1394      0.00000
     11       8.5299      0.00000
     12       8.5299      0.00000
     13       9.0850      0.00000
     14       9.0850      0.00000
     15      10.1379      0.00000
     16      10.1379      0.00000
     17      11.8778      0.00000
     18      11.8778      0.00000
     19      16.7118      0.00000
     20      16.7118      0.00000
     21      18.2228      0.00000
     22      18.2228      0.00000
     23      21.4243      0.00000
     24      21.4243      0.00000
     25      22.9428      0.00000
     26      22.9428      0.00000
     27      24.3447      0.00000
     28      24.3447      0.00000
     29      24.9273      0.00000
     30      24.9273      0.00000
     31      27.0901      0.00000
     32      27.0901      0.00000
 Fermi energy:        -0.1090175874

 spin component 2

[...]

 k-point    14 :       0.0000    0.5000    0.5000
  band No.  band energies     occupation
      1     -25.6604      1.00000
      2     -25.6604      1.00000
      3     -25.6347      1.00000
      4     -25.6347      1.00000
      5     -25.6343      1.00000
      6     -25.6343      1.00000
      7       1.4353      0.00000
      8       1.4353      0.00000
      9       2.1394      0.00000
     10       2.1394      0.00000
     11       8.5299      0.00000
     12       8.5299      0.00000
     13       9.0850      0.00000
     14       9.0850      0.00000
     15      10.1379      0.00000
     16      10.1379      0.00000
     17      11.8778      0.00000
     18      11.8778      0.00000
     19      16.7118      0.00000
     20      16.7118      0.00000
     21      18.2228      0.00000
     22      18.2228      0.00000
     23      21.4243      0.00000
     24      21.4243      0.00000
     25      22.9428      0.00000
     26      22.9428      0.00000
     27      24.3447      0.00000
     28      24.3447      0.00000
     29      24.9273      0.00000
     30      24.9273      0.00000
     31      27.0901      0.00000
     32      27.0901      0.00000

[...]

 soft charge-density along one line, spin component           2
         0         1         2         3         4         5         6         7         8         9
 total charge-density along one line

------------------------ aborting loop because EDIFF is reached ----------------------------------------

[...]

  FORCE on cell =-STRESS in cart. coord.  units (eV):
  Direction    XX          YY          ZZ          XY          YZ          ZX
  Alpha Z    16.59857    16.59857    16.59857
  Ewald    -204.35519  -204.35510  -204.30212     0.00005    -0.00000    -0.00000
  Hartree   171.65678   171.65681   171.70033     0.00003    -0.00000     0.00000
  E(xc)     -82.80161   -82.94706   -82.87641     0.12468     0.00000     0.00000
  Local     -43.85730   -43.85739   -43.94435    -0.00007     0.00000    -0.00000
  n-local   -44.10585   -44.11069   -44.11656    -0.00324     0.00000     0.00000
  augment    89.92634    89.92425    89.96453    -0.00180    -0.00000    -0.00000
  Kinetic    97.99766    96.03219    96.97576     1.67193    -0.00000     0.00000
  Fock        0.00000     0.00000     0.00000     0.00000     0.00000     0.00000
  Total       0.00048     0.00048    -0.00025     0.00000     0.00000    -0.00000
  in kB       0.01054     0.01054    -0.00544     0.00000     0.00000    -0.00000

 VOLUME and BASIS-vectors are now :
  energy-cutoff  :      680.00
  volume of cell :       73.48
      direct lattice vectors                 reciprocal lattice vectors
     3.729688878  0.000000006 -0.000000000     0.268118878  0.154798484 -0.000000000
    -1.864843928  3.230004905  0.000000000    -0.000000001  0.309597053  0.000000000
     0.000000000  0.000000000  6.099180661     0.000000000 -0.000000000  0.163956449

  length of vectors
     3.729688878  3.729688266  6.099180661     0.309597002  0.309597053  0.163956449

 FORCES acting on ions:
    Electron-Ion                     Ewald-Force                    Non-Local-Force
   0.372E-03 -.189E-03 0.515E-07   0.176E-04 -.140E-04 -.674E-14   -.130E-19 -.327E-19 0.202E-23
   -.489E-03 0.301E-03 0.515E-07   -.176E-04 0.140E-04 0.675E-14   -.128E-19 0.116E-19 0.191E-23
   -.119E-03 0.115E-03 0.102E-06   -.113E-15 -.592E-15 0.108E-16   -.258E-19 -.211E-19 0.394E-23

 POSITION                                       TOTAL-FORCE (eV/Angst)
     -0.00000      2.15334      1.52480        -0.000000      0.000000      0.000000
      1.86485      1.07667      4.57439         0.000000     -0.000000     -0.000000
    total drift:                               -0.000119      0.000115      0.000000

  FREE ENERGIE OF THE ION-ELECTRON SYSTEM (eV)
  free  energy   TOTEN  =        -7.23729425 eV

  energy  without entropy=       -7.24085500  energy(sigma->0) =       -7.23818444

 d Force = 0.0000000E+00[ 0.000E+00, 0.000E+00]  d Energy =-0.2563679E-06 0.256E-06
 d Force = 0.0000000E+00[ 0.000E+00, 0.000E+00]  d Ewald  =-0.7107732E-02 0.711E-02

 reached required accuracy - stopping structural energy minimisation

 total charge

[...]

 magnetization (x)

# of ion       s       p       d       tot
    1        0.000   0.000   0.000   0.000
    2        0.000   0.000   0.000   0.000
tot          0.000   0.000   0.000   0.000