 vasp.6.3.2 27Jun22 (build Aug 24 2022 16:22:54) complex
 executed on             LinuxGNU date 2024.03.07  13:53:03

 INCAR:
   ALGO = Fast
   EDIFF = 0.0024000000000000002
   ENCUT = 520
   START = 0
   IBRION = -1
   ISIF = 3
   ISMEAR = 0
   ISPIN = 2
   LASPH = True
   LCHARG = True
   LREAL = Auto
   LWAVE = False
   MAGMOM = 48*0.6
   NELM = 100
   NSW = 99
   PREC = Accurate
   SIGMA = 0.05

 POTCAR:    PAW_PBE Na_pv 19Sep2006
 POTCAR:    PAW_PBE S 06Sep2000
|           W    W    AA    RRRRR   N    N  II  N    N   GGGG   !!!           |
|           W    W   A  A   R    R  NN   N  II  NN   N  G    G  !!!           |
|           W    W  A    A  R    R  N N  N  II  N N  N  G       !!!           |
|           W WW W  AAAAAA  RRRRR   N  N N  II  N  N N  G  GGG   !            |
|           WW  WW  A    A  R   R   N   NN  II  N   NN  G    G                |
|           W    W  A    A  R    R  N    N  II  N    N   GGGG   !!!           |
|     For optimal performance we recommend to set                             |
|       NCORE = 2 up to number-of-cores-per-socket                            |
|     This setting can greatly improve the performance of VASP for DFT.       |
|     The default, NCORE=1 might be grossly inefficient on modern             |
|     multi-core architectures or massively parallel machines. Do your        |
|     Unfortunately you need to use the default for GW and RPA                |
|     calculations (for HF NCORE is supported but not extensively tested      |
|     yet).                                                                   |

   TITEL  = PAW_PBE Na_pv 19Sep2006
   POMASS =   22.990; ZVAL   =    7.000    mass and valenz
   ENMAX  =  259.561; ENMIN  =  194.671 eV

   TITEL  = PAW_PBE S 06Sep2000
   POMASS =   32.066; ZVAL   =    6.000    mass and valenz
   ENMAX  =  258.689; ENMIN  =  194.016 eV

 Optimization of the real space projectors (new method)

 maximal supplied QI-value         = 17.01
 optimisation between [QCUT,QGAM] = [ 11.57, 23.30] = [ 37.45,152.03] Ry
 Optimized for a Real-space Cutoff    1.45 Angstroem

   l    n(q)    QCUT    max X(q) W(low)/X(q) W(high)/X(q)  e(spline)
   1     10    11.565     4.940    0.87E-04    0.13E-03    0.13E-06
   1     10    11.565     6.253    0.13E-03    0.19E-03    0.20E-06
   0     10    11.565    37.438    0.53E-04    0.73E-05    0.79E-07
   0     10    11.565     9.606    0.27E-04    0.60E-05    0.56E-07
 Optimization of the real space projectors (new method)

 maximal supplied QI-value         = 19.84
 optimisation between [QCUT,QGAM] = [ 11.51, 23.22] = [ 37.09,150.92] Ry
 Optimized for a Real-space Cutoff    1.21 Angstroem

   l    n(q)    QCUT    max X(q) W(low)/X(q) W(high)/X(q)  e(spline)
   0      8    11.508   187.594    0.96E-04    0.18E-03    0.54E-07
   0      8    11.508   164.243    0.96E-04    0.18E-03    0.54E-07
   1      8    11.508    67.533    0.18E-03    0.65E-04    0.94E-07
   1      8    11.508    50.729    0.18E-03    0.63E-04    0.92E-07
  PAW_PBE Na_pv 19Sep2006               :
  PAW_PBE S 06Sep2000                   :

 POSCAR: Na16 S32
  positions in direct lattice
  velocities in cartesian coordinates
 exchange correlation table for  LEXCH =        8
   RHO(1)=    0.500       N(1)  =     2000
   RHO(2)=  100.500       N(2)  =     4000

 ion  position               nearest neighbor table
   1  0.000  0.000  0.828-
   2  0.000  0.000  0.172-
   3  0.000  0.500  0.422-
   4  0.000  0.500  0.078-
   5  0.250  0.227  0.375-
   6  0.773  0.250  0.625-
   7  0.727  0.250  0.125-
   8  0.250  0.273  0.875-
   9  0.500  0.500  0.328-
  10  0.500  0.500  0.672-
  11  0.500  0.000  0.922-
  12  0.500  0.000  0.578-
  13  0.750  0.727  0.875-
  14  0.273  0.750  0.125-
  15  0.227  0.750  0.625-
  16  0.750  0.773  0.375-
  17  0.248  0.467  0.204-  25 2.09
  18  0.533  0.248  0.796-  42 2.09
  19  0.967  0.252  0.296-  43 2.09
  20  0.248  0.033  0.046-  28 2.09
  21  0.752  0.967  0.046-  29 2.09
  22  0.252  0.033  0.704-  30 2.09
  23  0.467  0.748  0.454-  31 2.09
  24  0.533  0.252  0.454-  32 2.09
  25  0.383  0.353  0.103-  28 2.07  17 2.09
  26  0.147  0.883  0.397-  31 2.07  34 2.09
  27  0.353  0.617  0.897-  48 2.07  35 2.09
  28  0.383  0.147  0.147-  25 2.07  20 2.09
  29  0.617  0.853  0.147-  46 2.07  21 2.09
  30  0.117  0.147  0.603-  45 2.07  22 2.09
  31  0.353  0.883  0.353-  26 2.07  23 2.09
  32  0.647  0.117  0.353-  43 2.07  24 2.09
  33  0.748  0.967  0.704-  41 2.09
  34  0.033  0.748  0.296-  26 2.09
  35  0.467  0.752  0.796-  27 2.09
  36  0.748  0.533  0.546-  44 2.09
  37  0.252  0.467  0.546-  45 2.09
  38  0.752  0.533  0.204-  46 2.09
  39  0.967  0.248  0.954-  47 2.09
  40  0.033  0.752  0.954-  48 2.09
  41  0.883  0.853  0.603-  44 2.07  33 2.09
  42  0.647  0.383  0.897-  47 2.07  18 2.09
  43  0.853  0.117  0.397-  32 2.07  19 2.09
  44  0.883  0.647  0.647-  41 2.07  36 2.09
  45  0.117  0.353  0.647-  30 2.07  37 2.09
  46  0.617  0.647  0.103-  29 2.07  38 2.09
  47  0.853  0.383  0.853-  42 2.07  39 2.09
  48  0.147  0.617  0.853-  27 2.07  40 2.09

  LATTYP: Found a simple tetragonal cell.
 ALAT       =     9.6971890487
 C/A-ratio  =     1.2240492948

  Lattice vectors:

 A1 = (   9.6971890487,   0.0000000000,   0.0000000000)
 A2 = (   0.0000000000,   9.6971890487,   0.0000000000)
 A3 = (   0.0000000000,   0.0000000000,  11.8698374166)

Analysis of symmetry for initial positions (statically):
 Subroutine PRICEL returns following result:

  LATTYP: Found a body centered tetragonal cell.
 ALAT       =     9.6971890487
 C/A-ratio  =     1.2240492948

[...]

   2 primitive cells build up your supercell.

 Routine SETGRP: Setting up the symmetry group for a
 simple tetragonal supercell.

 Subroutine GETGRP returns: Found  8 space group operations
 (whereof  4 operations were pure point group operations)
 out of a pool of 16 trial point group operations.

The static configuration has the point symmetry S_4 .
 The point group associated with its full space group is D_2d.

Analysis of symmetry for dynamics (positions and initial velocities):
 Subroutine PRICEL returns following result:

[...]

The dynamic configuration has the point symmetry S_4 .
 The point group associated with its full space group is D_2d.

Analysis of structural, dynamic, and magnetic symmetry:
 Subroutine PRICEL returns following result:

  LATTYP: Found a body centered tetragonal cell.
 ALAT       =     9.6971890487
 C/A-ratio  =     1.2240492948

  Lattice vectors:

 A1 = (  -4.8485945243,  -4.8485945243,  -5.9349187083)
 A2 = (   4.8485945243,   4.8485945243,  -5.9349187083)
 A3 = (   4.8485945243,  -4.8485945243,   5.9349187083)

   2 primitive cells build up your supercell.

 Routine SETGRP: Setting up the symmetry group for a
 simple tetragonal supercell.

 Subroutine GETGRP returns: Found  8 space group operations
 (whereof  4 operations were pure point group operations)
 out of a pool of 16 trial point group operations.

The overall configuration has the point symmetry S_4 .
 The point group associated with its full space group is D_2d.

 Subroutine INISYM returns: Found  8 space group operations
 (whereof  4 operations are pure point group operations),
 and found     2 'primitive' translations

                                     Primitive cell

  volume of cell :     558.0929

  direct lattice vectors                    reciprocal lattice vectors
    -4.848594524 -4.848594524 -5.934918708     0.000000000 -0.103122667 -0.084247152
     4.848594524  4.848594524 -5.934918708     0.103122667 -0.000000000 -0.084247152
     4.848594524 -4.848594524  5.934918708     0.103122667 -0.103122667 -0.000000000

  length of vectors
     9.068682253  9.068682253  9.068682253     0.133161057  0.133161057  0.145837475

  position of ions in fractional coordinates (direct lattice)
     0.171795602  0.171795602  1.000000000
     0.828204398  0.828204398  1.000000000
     0.078204398  0.578204398  0.500000000
     0.421795602  0.921795602  0.500000000
     0.397563450  0.875000000  0.022563450
     0.125000000  0.147563450  0.522563450
     0.625000000  0.602436550  0.477436550
     0.852436550  0.375000000  0.977436550
     0.328873417  0.044596452  0.781179747
     0.955403548  0.736583295  0.284276966
     0.452306330  0.671126583  0.715723034
     0.921126583  0.202306330  0.215723034
     0.986583295  0.705403548  0.784276966
     0.263416705  0.547693670  0.218820253
     0.797693670  0.013416705  0.718820253
     0.294596452  0.078873417  0.281179747
     0.544152841  0.280296460  0.029829862
     0.719703540  0.749533402  0.263856382
     0.485677021  0.455847159  0.736143618
     0.705847159  0.235677021  0.236143618
     0.999533402  0.469703540  0.763856382
     0.250466598  0.514322979  0.970170138
     0.764322979  0.000466598  0.470170138
     0.530296460  0.294152841  0.529829862

  ion indices of the primitive-cell ions
   primitive index   ion index
                 1           1
                 2           2
                 3          11
                 4           4
                 5          13
                 6           6
                 7          15
                 8           8
                 9          33
                10          18
                11          35
                12          20
                13          21
                14          22
                15          39
                16          40
                17          41
                18          26
                19          43
                20          44
                21          45
                22          30
                23          47
                24          48

 KPOINTS: pymatgen with grid density = 712 / numbe

Automatic generation of k-mesh.
 Grid dimensions read from file:
 generate k-points for:    2    2    2

 Generating k-lattice:

  Cartesian coordinates                     Fractional coordinates (reciprocal lattice)
     0.051561334 -0.000000000  0.000000000     0.500000000 -0.000000000  0.000000000
     0.000000000  0.051561334  0.000000000     0.000000000  0.500000000  0.000000000
    -0.000000000 -0.000000000  0.042123576    -0.000000000 -0.000000000  0.500000000

  Length of vectors
     0.051561334  0.051561334  0.042123576

  Shift w.r.t. Gamma in fractional coordinates (k-lattice)
     0.500000000  0.500000000  0.500000000

 Subroutine IBZKPT returns following result:

 Found      1 irreducible k-points:

 Following reciprocal coordinates:
            Coordinates               Weight
  0.250000  0.250000  0.250000      8.000000

 Following cartesian coordinates:
            Coordinates               Weight
  0.025781  0.025781  0.021062      8.000000

 SYSTEM =  unknown system
 POSCAR =  Na16 S32

 Startparameter for this run:
   NWRITE =      2    write-flag & timer
   PREC   = accura    normal or accurate (medium, high low for compatibility)
   ISTART =      0    job   : 0-new  1-cont  2-samecut
   ICHARG =      2    charge: 1-file 2-atom 10-const
   ISPIN  =      2    spin polarized calculation?
   LNONCOLLINEAR =      F non collinear calculations
   LSORBIT =      F    spin-orbit coupling
[...]
     41     -20.8313      1.00000
     42     -20.8313      1.00000
     43     -20.8312      1.00000
     44     -20.8312      1.00000
     45     -20.8307      1.00000
     46     -20.8307      1.00000
     47     -20.8306      1.00000
     48     -20.8306      1.00000
     49     -13.6903      1.00000
     50     -13.6500      1.00000
     51     -13.6029      1.00000
     52     -13.5755      1.00000
     53     -13.5585      1.00000
     54     -13.5554      1.00000
     55     -13.5514      1.00000
     56     -13.5396      1.00000
     57     -11.6349      1.00000
     58     -11.6184      1.00000
     59     -11.5830      1.00000
     60     -11.5565      1.00000
[...]
    210       9.1619      0.00000
    211       9.2535      0.00000
    212       9.2885      0.00000
    213       9.3051      0.00000
    214       9.3515      0.00000
    215       9.4271      0.00000
    216       9.4542      0.00000
    217       9.5024      0.00000
    218       9.6369      0.00000
    219       9.6999      0.00000
    220       9.7023      0.00000
    221       9.8053      0.00000
    222       9.8547      0.00000
    223       9.9226      0.00000
    224       9.9510      0.00000
 Fermi energy:         2.1776237785

 spin component 2

 k-point     1 :       0.2500    0.2500    0.2500
  band No.  band energies     occupation
      1     -21.1166      1.00000
      2     -21.1165      1.00000
      3     -21.1165      1.00000
      4     -21.1165      1.00000
      5     -21.1163      1.00000
      6     -21.1163      1.00000
      7     -21.1163      1.00000
      8     -21.1162      1.00000
      9     -21.1116      1.00000
     10     -21.1115      1.00000
     11     -21.1115      1.00000
     12     -21.1115      1.00000
     13     -21.1112      1.00000
     14     -21.1112      1.00000
     15     -21.1112      1.00000
     16     -21.1111      1.00000
     17     -21.0843      1.00000
     18     -21.0842      1.00000
     19     -21.0842      1.00000
     20     -21.0842      1.00000
     21     -21.0842      1.00000
     22     -21.0841      1.00000
     23     -21.0840      1.00000
     24     -21.0839      1.00000
     25     -20.8645      1.00000
     26     -20.8644      1.00000
     27     -20.8642      1.00000
     28     -20.8640      1.00000
     29     -20.8604      1.00000
     30     -20.8603      1.00000
     31     -20.8602      1.00000
     32     -20.8601      1.00000
     33     -20.8557      1.00000
     34     -20.8557      1.00000
     35     -20.8556      1.00000
     36     -20.8556      1.00000
     37     -20.8551      1.00000
     38     -20.8551      1.00000
     39     -20.8550      1.00000
     40     -20.8550      1.00000
     41     -20.8313      1.00000
     42     -20.8313      1.00000
     43     -20.8312      1.00000
     44     -20.8312      1.00000
     45     -20.8307      1.00000
     46     -20.8307      1.00000
     47     -20.8306      1.00000
     48     -20.8306      1.00000
     49     -13.6903      1.00000
     50     -13.6500      1.00000
     51     -13.6029      1.00000
     52     -13.5755      1.00000
     53     -13.5585      1.00000
     54     -13.5554      1.00000
     55     -13.5514      1.00000
     56     -13.5396      1.00000
     57     -11.6349      1.00000
     58     -11.6184      1.00000
     59     -11.5830      1.00000
     60     -11.5565      1.00000
[...]
    210       9.1619      0.00000
    211       9.2535      0.00000
    212       9.2885      0.00000
    213       9.3051      0.00000
    214       9.3515      0.00000
    215       9.4271      0.00000
    216       9.4542      0.00000
    217       9.5024      0.00000
    218       9.6369      0.00000
    219       9.6999      0.00000
    220       9.7023      0.00000
    221       9.8053      0.00000
    222       9.8547      0.00000
    223       9.9226      0.00000
    224       9.9510      0.00000

[...]

 soft charge-density along one line, spin component           2
         0         1         2         3         4         5         6         7         8         9
 total charge-density along one line

------------------------ aborting loop because EDIFF is reached ----------------------------------------

  FORCE on cell =-STRESS in cart. coord.  units (eV):
  Direction    XX          YY          ZZ          XY          YZ          ZX
  Alpha Z   409.06785   409.06785   409.06785
  Ewald   -4310.62403 -4310.62403 -4717.60271    -0.00000     0.00000    -0.00000
  Hartree  1728.00986  1728.00986  1623.86806    -0.00000    -0.00000    -0.00000
  E(xc)   -1283.05212 -1283.05212 -1285.99104     0.00000    -0.00000    -0.00000
  Local   -1959.32822 -1959.32822 -1542.20200     0.00000    -0.00000    -0.00000
  n-local  1961.84994  1961.84994  1979.57314     0.00681     0.01067     0.01090
  augment   114.75406   114.75406   103.47450    -0.00000    -0.00000     0.00000
  Kinetic  3339.56380  3339.56380  3431.45686     0.12350     0.04661     0.04661
  Fock        0.00000     0.00000     0.00000     0.00000     0.00000     0.00000
  Total       0.24114     0.24114     1.64467     0.00000     0.00000     0.00000
  in kB       0.34614     0.34614     2.36076     0.00000     0.00000     0.00000

 VOLUME and BASIS-vectors are now :
  energy-cutoff  :      520.00
  volume of cell :     1116.19
      direct lattice vectors                 reciprocal lattice vectors
     9.697189049  0.000000000  0.000000000     0.103122667 -0.000000000  0.000000000
     0.000000000  9.697189049  0.000000000     0.000000000  0.103122667  0.000000000
     0.000000000  0.000000000 11.869837417    -0.000000000 -0.000000000  0.084247152

  length of vectors
     9.697189049  9.697189049 11.869837417     0.103122667  0.103122667  0.084247152

 FORCES acting on ions
    electron-ion (+dipol)            ewald-force                    non-local-force                 convergence-correction
   0.178E-12 -.452E-13 -.167E+02   -.178E-13 0.711E-14 0.173E+02   0.112E-19 0.113E-19 -.569E+00   0.476E-13 0.798E-13 -.108E-12
   0.720E-13 0.962E-13 0.167E+02   0.338E-13 -.977E-14 -.173E+02   -.475E-19 -.277E-20 0.569E+00   0.107E-13 0.517E-13 0.133E-12
   0.128E-12 0.496E-12 0.167E+02   -.888E-14 0.187E-13 -.173E+02   0.648E-20 0.159E-19 0.569E+00   0.128E-13 -.126E-13 0.142E-12
   0.561E-13 0.679E-12 -.167E+02   0.391E-13 0.462E-13 0.173E+02   -.536E-19 -.107E-19 -.569E+00   0.793E-14 0.559E-13 -.153E-12
   -.720E-07 0.183E+02 0.294E-05   0.346E-13 -.169E+02 0.600E-13   -.215E-15 -.139E+01 -.859E-16   0.219E-14 -.188E-12 -.546E-13
   -.183E+02 -.720E-07 -.294E-05   0.169E+02 -.888E-15 -.249E-13   0.139E+01 0.786E-20 0.859E-16   0.264E-12 -.366E-13 0.338E-13
   0.183E+02 -.720E-07 0.294E-05   -.169E+02 0.355E-14 0.142E-13   -.139E+01 0.193E-20 -.859E-16   -.159E-12 0.319E-13 -.716E-13
   -.720E-07 -.183E+02 -.294E-05   -.426E-13 0.169E+02 -.933E-14   0.215E-15 0.139E+01 0.858E-16   0.295E-13 0.221E-12 0.793E-14
   0.166E-12 -.317E-13 -.167E+02   -.271E-13 -.333E-14 0.173E+02   -.121E-20 0.364E-19 -.569E+00   0.515E-13 0.660E-13 -.163E-12
   0.208E-11 0.129E-11 0.167E+02   0.391E-13 0.142E-13 -.173E+02   -.189E-19 -.143E-20 0.569E+00   -.111E-13 0.594E-13 0.234E-12
   0.997E-12 -.758E-13 0.167E+02   0.107E-13 0.107E-13 -.173E+02   0.458E-20 0.401E-19 0.569E+00   0.703E-14 -.157E-13 0.159E-12
   0.849E-12 -.114E-12 -.167E+02   0.533E-13 0.413E-13 0.173E+02   -.198E-19 -.940E-20 -.569E+00   0.299E-14 0.663E-13 -.603E-13
   -.720E-07 0.183E+02 0.294E-05   0.711E-14 -.169E+02 0.400E-14   -.215E-15 -.139E+01 -.859E-16   -.135E-13 -.178E-12 -.338E-13
   -.183E+02 -.720E-07 -.294E-05   0.169E+02 0.426E-13 -.355E-13   0.139E+01 -.188E-20 0.859E-16   0.227E-12 -.913E-14 -.105E-12
   0.183E+02 -.720E-07 0.294E-05   -.169E+02 -.249E-13 0.213E-13   -.139E+01 0.356E-20 -.859E-16   -.164E-12 0.421E-13 0.285E-13
   -.720E-07 -.183E+02 -.294E-05   -.204E-13 0.169E+02 0.160E-13   0.215E-15 0.139E+01 0.858E-16   -.137E-14 0.230E-12 -.468E-13
   0.440E+02 -.291E+02 -.347E+02   -.470E+02 0.323E+02 0.382E+02   0.299E+01 -.320E+01 -.344E+01   0.138E-12 0.255E-12 -.162E-12
   0.291E+02 0.440E+02 0.347E+02   -.323E+02 -.470E+02 -.382E+02   0.320E+01 0.299E+01 0.344E+01   -.260E-12 0.145E-12 0.888E-13
   -.291E+02 -.440E+02 0.347E+02   0.323E+02 0.470E+02 -.382E+02   -.320E+01 -.299E+01 0.344E+01   0.236E-12 -.142E-12 0.971E-13
   0.440E+02 0.291E+02 0.347E+02   -.470E+02 -.323E+02 -.382E+02   0.299E+01 0.320E+01 0.344E+01   0.142E-12 -.253E-12 0.333E-13
   -.440E+02 -.291E+02 0.347E+02   0.470E+02 0.323E+02 -.382E+02   -.299E+01 -.320E+01 0.344E+01   -.133E-12 0.214E-12 0.683E-13
   -.440E+02 0.291E+02 -.347E+02   0.470E+02 -.323E+02 0.382E+02   -.299E+01 0.320E+01 -.344E+01   -.155E-12 -.202E-12 -.110E-12
   -.291E+02 0.440E+02 -.347E+02   0.323E+02 -.470E+02 0.382E+02   -.320E+01 0.299E+01 -.344E+01   0.229E-12 0.142E-12 -.712E-13
   0.291E+02 -.440E+02 -.347E+02   -.323E+02 0.470E+02 0.382E+02   0.320E+01 -.299E+01 -.344E+01   -.245E-12 -.142E-12 -.891E-13
   -.359E+02 -.357E+02 0.492E+02   0.429E+02 0.383E+02 -.567E+02   -.705E+01 -.268E+01 0.748E+01   0.276E-12 0.620E-12 -.154E-12
   0.357E+02 -.359E+02 -.492E+02   -.383E+02 0.429E+02 0.567E+02   0.268E+01 -.705E+01 -.748E+01   -.604E-12 0.324E-12 0.142E-12
   -.357E+02 0.359E+02 -.492E+02   0.383E+02 -.429E+02 0.567E+02   -.268E+01 0.705E+01 -.748E+01   0.679E-12 -.271E-12 0.101E-12
   -.359E+02 0.357E+02 -.492E+02   0.429E+02 -.383E+02 0.567E+02   -.705E+01 0.268E+01 -.748E+01   0.283E-12 -.572E-12 0.522E-13
   0.359E+02 -.357E+02 -.492E+02   -.429E+02 0.383E+02 0.567E+02   0.705E+01 -.268E+01 -.748E+01   -.301E-12 0.585E-12 0.502E-13
   0.359E+02 0.357E+02 0.492E+02   -.429E+02 -.383E+02 -.567E+02   0.705E+01 0.268E+01 0.748E+01   -.308E-12 -.636E-12 -.804E-13
   -.357E+02 -.359E+02 0.492E+02   0.383E+02 0.429E+02 -.567E+02   -.268E+01 -.705E+01 0.748E+01   0.571E-12 0.288E-12 -.831E-13
   0.357E+02 0.359E+02 0.492E+02   -.383E+02 -.429E+02 -.567E+02   0.268E+01 0.705E+01 0.748E+01   -.619E-12 -.322E-12 -.149E-12
   0.440E+02 -.291E+02 -.347E+02   -.470E+02 0.323E+02 0.382E+02   0.299E+01 -.320E+01 -.344E+01   0.145E-12 0.246E-12 -.841E-13
   0.291E+02 0.440E+02 0.347E+02   -.323E+02 -.470E+02 -.382E+02   0.320E+01 0.299E+01 0.344E+01   -.243E-12 0.166E-12 0.474E-13
   -.291E+02 -.440E+02 0.347E+02   0.323E+02 0.470E+02 -.382E+02   -.320E+01 -.299E+01 0.344E+01   0.218E-12 -.170E-12 0.183E-12
   0.440E+02 0.291E+02 0.347E+02   -.470E+02 -.323E+02 -.382E+02   0.299E+01 0.320E+01 0.344E+01   0.121E-12 -.254E-12 0.103E-12
   -.440E+02 -.291E+02 0.347E+02   0.470E+02 0.323E+02 -.382E+02   -.299E+01 -.320E+01 0.344E+01   -.107E-12 0.221E-12 0.132E-12
   -.440E+02 0.291E+02 -.347E+02   0.470E+02 -.323E+02 0.382E+02   -.299E+01 0.320E+01 -.344E+01   -.141E-12 -.229E-12 -.174E-12
   -.291E+02 0.440E+02 -.347E+02   0.323E+02 -.470E+02 0.382E+02   -.320E+01 0.299E+01 -.344E+01   0.223E-12 0.134E-12 -.989E-13
   0.291E+02 -.440E+02 -.347E+02   -.323E+02 0.470E+02 0.382E+02   0.320E+01 -.299E+01 -.344E+01   -.253E-12 -.109E-12 -.105E-12
   -.359E+02 -.357E+02 0.492E+02   0.429E+02 0.383E+02 -.567E+02   -.705E+01 -.268E+01 0.748E+01   0.282E-12 0.648E-12 -.685E-13
   0.357E+02 -.359E+02 -.492E+02   -.383E+02 0.429E+02 0.567E+02   0.268E+01 -.705E+01 -.748E+01   -.602E-12 0.290E-12 0.125E-12
   -.357E+02 0.359E+02 -.492E+02   0.383E+02 -.429E+02 0.567E+02   -.268E+01 0.705E+01 -.748E+01   0.662E-12 -.298E-12 0.112E-12
   -.359E+02 0.357E+02 -.492E+02   0.429E+02 -.383E+02 0.567E+02   -.705E+01 0.268E+01 -.748E+01   0.288E-12 -.534E-12 0.172E-12
   0.359E+02 -.357E+02 -.492E+02   -.429E+02 0.383E+02 0.567E+02   0.705E+01 -.268E+01 -.748E+01   -.292E-12 0.535E-12 0.146E-12
   0.359E+02 0.357E+02 0.492E+02   -.429E+02 -.383E+02 -.567E+02   0.705E+01 0.268E+01 0.748E+01   -.305E-12 -.610E-12 -.150E-12
   -.357E+02 -.359E+02 0.492E+02   0.383E+02 0.429E+02 -.567E+02   -.268E+01 -.705E+01 0.748E+01   0.599E-12 0.275E-12 -.673E-13
   0.357E+02 0.359E+02 0.492E+02   -.383E+02 -.429E+02 -.567E+02   0.268E+01 0.705E+01 0.748E+01   -.555E-12 -.319E-12 -.101E-12
   -.118E-05 -.118E-05 0.324E-07   -.853E-13 -.227E-12 -.426E-13   -.577E-14 -.355E-14 -.533E-14   0.285E-12 0.489E-12 -.153E-12

 POSITION                                       TOTAL-FORCE (eV/Angst)
      0.00000      0.00000      9.83065        -0.000000      0.000000      0.011751
      0.00000      0.00000      2.03919        -0.000000      0.000000     -0.011751
      0.00000      4.84859      5.00665        -0.000000      0.000000     -0.011751
      0.00000      4.84859      0.92827        -0.000000      0.000000      0.011751
      2.42430      2.20550      4.45119         0.000000      0.008840      0.000000
      7.49169      2.42430      7.41865        -0.008840      0.000000     -0.000000
      7.05409      2.42430      1.48373         0.008840      0.000000      0.000000
      2.42430      2.64310     10.38611        -0.000000     -0.008840     -0.000000
      4.84859      4.84859      3.89573        -0.000000      0.000000      0.011751
      4.84859      4.84859      7.97410        -0.000000      0.000000     -0.011751
      4.84859      0.00000     10.94156        -0.000000      0.000000     -0.011751
      4.84859      0.00000      6.86319        -0.000000      0.000000      0.011751
      7.27289      7.05409     10.38611         0.000000      0.008840      0.000000
      2.64310      7.27289      1.48373        -0.008840      0.000000     -0.000000
      2.20550      7.27289      7.41865         0.008840      0.000000      0.000000
      7.27289      7.49169      4.45119        -0.000000     -0.008840     -0.000000
      2.40928      4.53122      2.41972        -0.002815     -0.016078      0.005971
      5.16597      2.40928      9.45011         0.016078     -0.002815     -0.005971
      9.37982      2.43931      3.51519        -0.016078      0.002815     -0.005971
      2.40928      0.31737      0.54773        -0.002815      0.016078     -0.005971
      7.28791      9.37982      0.54773         0.002815     -0.016078     -0.005971
      2.43931      0.31737      8.35464         0.002815      0.016078      0.005971
      4.53122      7.25787      5.38718        -0.016078     -0.002815      0.005971
      5.16597      2.43931      5.38718         0.016078      0.002815      0.005971
      3.71389      3.42463      1.21892        -0.022164     -0.016496     -0.008584
      1.42397      8.56249      4.71600         0.016496     -0.022164      0.008584
      3.42463      5.98329     10.65092        -0.016496      0.022164      0.008584
      3.71389      1.42397      1.74854        -0.022164      0.016496      0.008584
      5.98329      8.27322      1.74854         0.022164     -0.016496      0.008584
      1.13470      1.42397      7.15384         0.022164      0.016496     -0.008584
      3.42463      8.56249      4.18638        -0.016496     -0.022164     -0.008584
      6.27256      1.13470      4.18638         0.016496      0.022164     -0.008584
      7.25787      9.37982      8.35464        -0.002815     -0.016078      0.005971
      0.31737      7.25787      3.51519         0.016078     -0.002815     -0.005971
      4.53122      7.28791      9.45011        -0.016078      0.002815     -0.005971
      7.25787      5.16597      6.48265        -0.002815      0.016078     -0.005971
      2.43931      4.53122      6.48265         0.002815     -0.016078     -0.005971
      7.28791      5.16597      2.41972         0.002815      0.016078      0.005971
      9.37982      2.40928     11.32210        -0.016078     -0.002815      0.005971
      0.31737      7.28791     11.32210         0.016078      0.002815      0.005971
      8.56249      8.27322      7.15384        -0.022164     -0.016496     -0.008584
      6.27256      3.71389     10.65092         0.016496     -0.022164      0.008584
      8.27322      1.13470      4.71600        -0.016496      0.022164      0.008584
      8.56249      6.27256      7.68346        -0.022164      0.016496      0.008584
      1.13470      3.42463      7.68346         0.022164     -0.016496      0.008584
      5.98329      6.27256      1.21892         0.022164      0.016496     -0.008584
      8.27322      3.71389     10.12129        -0.016496     -0.022164     -0.008584
      1.42397      5.98329     10.12129         0.016496      0.022164     -0.008584
    total drift:                               -0.000001     -0.000001      0.000000

  FREE ENERGIE OF THE ION-ELECTRON SYSTEM (eV)
  free  energy   TOTEN  =      -181.42859532 eV

  energy  without entropy=     -181.42859532  energy(sigma->0) =     -181.42859532

 d Force = 0.0000000E+00[ 0.000E+00, 0.000E+00]  d Energy =-0.1091394E-10 0.109E-10
 d Force = 0.0000000E+00[ 0.000E+00, 0.000E+00]  d Ewald  = 0.0000000E+00 0.000E+00